
#######################################################################
#
#                 Cambridge Crystallographic Data Centre
#                                CCDC
#
#######################################################################
#
# If this CIF has been generated from an entry in the Cambridge
# Structural Database, then it will include bibliographic, chemical,
# crystal, experimental, refinement or atomic coordinate data resulting
# from the CCDC's data processing and validation procedures.
#
#######################################################################

data_CSD_CIF_WIMRES
_audit_creation_date 2018-10-24
_audit_creation_method CSD-ConQuest-V1
_database_code_CSD WIMRES
_database_code_depnum_ccdc_archive 'CCDC 1875165'
_chemical_formula_sum 'C6 H16 Br4 N2 Pb1'
_chemical_formula_moiety
;
C6 H16 N2 2+,(Br4 Pb1 2-)n
;
_journal_coden_Cambridge 4
_journal_volume 140
_journal_year 2018
_journal_page_first 13078
_journal_name_full 'J.Am.Chem.Soc. '
loop_
_publ_author_name
"Lingling Mao"
"Peijun Guo"
"M.Kepenekian"
"I.Hadar"
"C.Katan"
"Jacky Even"
"R.D.Schaller"
"C.C.Stoumpos"
"M.G.Kanatzidis"
_chemical_name_systematic
;
catena-(4-(ammoniomethyl)piperidin-1-ium bis(\m-bromo)-dibromo-lead(ii))
;
_cell_volume   1422.067
_exptl_crystal_colour 'colorless'
_exptl_crystal_density_diffrn 2.992
_exptl_crystal_description 'plate'
_diffrn_ambient_temperature 293
_diffrn_special_details
;
twin

;
#These two values have been output from a single CSD field.
_refine_ls_R_factor_gt 0.0452
_refine_ls_wR_factor_gt 0.0452
_symmetry_cell_setting orthorhombic
_symmetry_space_group_name_H-M 'P c a 21'
_symmetry_Int_Tables_number 29
loop_
_symmetry_equiv_pos_site_id
_symmetry_equiv_pos_as_xyz
1 x,y,z
2 -x,-y,1/2+z
3 1/2-x,y,1/2+z
4 1/2+x,-y,z
_cell_length_a 17.745(4)
_cell_length_b 10.235(2)
_cell_length_c 7.8299(16)
_cell_angle_alpha 90
_cell_angle_beta 90
_cell_angle_gamma 90
_cell_formula_units_Z 4
loop_
_atom_type_symbol
_atom_type_radius_bond
C 0.68
H 0.23
Br 1.21
N 0.68
Pb 1.46
loop_
_atom_site_label
_atom_site_type_symbol
_atom_site_fract_x
_atom_site_fract_y
_atom_site_fract_z
Pb1 Pb 0.12266(3) 0.50729(4) 0.16153(19)
Br1 Br 0.15211(9) 0.20689(14) 0.1413(3)
Br2 Br 0.11301(10) 0.78570(15) 0.1859(3)
Br3 Br 0.23299(10) 0.51957(16) 0.4639(3)
Br4 Br -0.03714(11) 0.49730(16) 0.3355(3)
N1 N 0.1178(7) 0.7632(12) 0.619(2)
H1 H 0.12910 0.76370 0.49790
H2 H 0.11480 0.67290 0.65610
N2 N 0.1671(8) 1.2628(12) 0.7217(19)
H3 H 0.21310 1.24050 0.68670
H4 H 0.16320 1.24900 0.83350
H5 H 0.15920 1.34700 0.69960
C1 C 0.1840(8) 0.9730(15) 0.658(3)
H6 H 0.22380 1.01630 0.72130
H7 H 0.19660 0.97760 0.53740
C2 C 0.1098(9) 1.0431(16) 0.689(2)
H8 H 0.09890 1.04130 0.81160
C3 C 0.0443(8) 0.8278(16) 0.648(4)
H9 H 0.03090 0.82150 0.76820
H10 H 0.00560 0.78410 0.58230
C4 C 0.1102(10) 1.1828(16) 0.630(2)
H11 H 0.12060 1.18550 0.50870
H12 H 0.06060 1.22040 0.64860
C5 C 0.1793(11) 0.8297(17) 0.713(3)
H13 H 0.22690 0.78640 0.68970
H14 H 0.16990 0.82480 0.83490
C6 C 0.0486(10) 0.9700(16) 0.597(3)
H15 H 0.05760 0.97530 0.47460
H16 H 0.00050 1.01140 0.62000
Pb1A Pb -0.12266(3) 0.49271(4) 0.66153(19)
Pb1B Pb 0.37734(3) 0.50729(4) 0.66153(19)
Br3B Br 0.26701(10) 0.51957(16) -0.0361(3)
Br4A Br 0.03714(11) 0.50270(16) -0.1645(3)
#END

data_CSD_CIF_ZERSOH
_audit_creation_date 2018-03-21
_audit_creation_method CSD-ConQuest-V1
_database_code_CSD ZERSOH
_database_code_depnum_ccdc_archive 'CCDC 1831525'
_chemical_formula_sum 'C12 H32 I8 N4 Pb2'
_chemical_formula_moiety
;
2(C6 H16 N2 2+),(I8 Pb2 4-)n
;
_journal_coden_Cambridge 4
_journal_volume 140
_journal_year 2018
_journal_page_first 3775
_journal_name_full 'J.Am.Chem.Soc. '
loop_
_publ_author_name
"Lingling Mao"
"Weijun Ke"
"L.Pedesseau"
"Yilei Wu"
"C.Katan"
"Jacky Even"
"M.R.Wasielewski"
"C.C.Stoumpos"
"M.G.Kanatzidis"
_chemical_name_systematic
;
catena-(bis(4-(ammoniomethyl)piperidin-1-ium) 
tetrakis(\m-iodo)-tetrakis(iodo)-di-lead)
;
_cell_volume   1650.046
_exptl_crystal_colour 'orange'
_exptl_crystal_density_diffrn 3.344
_exptl_special_details
;
Pc polymorph

;
_exptl_crystal_description 'plate'
_diffrn_ambient_temperature 293
#These two values have been output from a single CSD field.
_refine_ls_R_factor_gt 0.0797
_refine_ls_wR_factor_gt 0.0797
_symmetry_cell_setting monoclinic
_symmetry_space_group_name_H-M 'P c'
_symmetry_Int_Tables_number 7
loop_
_symmetry_equiv_pos_site_id
_symmetry_equiv_pos_as_xyz
1 x,y,z
2 x,-y,1/2+z
_cell_length_a 10.4999(13)
_cell_length_b 12.5429(9)
_cell_length_c 12.5289(13)
_cell_angle_alpha 90
_cell_angle_beta 89.984(9)
_cell_angle_gamma 90
_cell_formula_units_Z 2
loop_
_atom_type_symbol
_atom_type_radius_bond
C 0.68
H 0.23
I 1.40
N 0.68
Pb 1.46
loop_
_atom_site_label
_atom_site_type_symbol
_atom_site_fract_x
_atom_site_fract_y
_atom_site_fract_z
Pb1 Pb -0.0007(3) 0.4916(3) 0.0031(2)
Pb2 Pb -0.0009(4) -0.0082(3) 0.0210(2)
I1 I 0.0032(8) 0.7488(5) 0.0686(4)
I2 I -0.2955(7) 0.476(1) -0.0127(6)
I3 I 0.3036(8) 0.4679(8) -0.0099(6)
I4 I 0.0045(6) 0.5565(4) -0.2414(3)
I5 I 0.0033(8) 0.2439(4) -0.0451(4)
I6 I -0.2995(9) -0.0017(9) 0.0284(7)
I7 I 0.3081(9) -0.0079(10) 0.0242(6)
I8 I 0.0077(10) -0.0568(6) -0.2264(4)
N1 N 0.262(3) 0.274(7) 0.204(4)
N2 N 0.752(4) 0.221(5) 0.251(3)
C1 C 0.354(3) 0.285(6) 0.295(3)
C2 C 0.485(3) 0.256(4) 0.2575(18)
C3 C 0.559(3) 0.277(5) 0.3576(18)
C4 C 0.692(3) 0.234(6) 0.358(3)
C5 C 0.695(3) 0.289(4) 0.164(3)
C6 C 0.553(3) 0.284(6) 0.1558(19)
H1 H 0.32860 0.23760 0.35145
H2 H 0.35315 0.35678 0.31989
H3 H 0.47582 0.18638 0.22606
H4 H 0.56129 0.35283 0.37053
H5 H 0.51292 0.25021 0.41793
H6 H 0.74502 0.27836 0.40211
H7 H 0.69293 0.16672 0.39520
H8 H 0.73204 0.26993 0.09675
H9 H 0.72089 0.36147 0.17393
H10 H 0.52907 0.23377 0.10111
H11 H 0.52073 0.35028 0.12922
H12 H 0.21317 0.21852 0.21411
H13 H 0.21500 0.33082 0.19945
H14 H 0.30383 0.26552 0.14433
H15 H 0.74856 0.15429 0.23159
H16 H 0.83300 0.23363 0.25495
N3 N 0.726(3) 0.134(4) -0.220(3)
N4 N 0.295(3) 0.247(4) -0.229(3)
C7 C 0.706(3) 0.251(4) -0.238(4)
C8 C 0.566(3) 0.275(2) -0.235(2)
C9 C 0.515(3) 0.166(3) -0.209(3)
C10 C 0.377(3) 0.164(4) -0.176(3)
C11 C 0.353(3) 0.298(3) -0.326(2)
C12 C 0.486(4) 0.338(3) -0.311(3)
H17 H 0.74037 0.27042 -0.30597
H18 H 0.74841 0.29043 -0.18265
H19 H 0.55868 0.33577 -0.18939
H20 H 0.56575 0.13508 -0.15303
H21 H 0.52804 0.11931 -0.26791
H22 H 0.34297 0.09452 -0.18981
H23 H 0.37082 0.17126 -0.10038
H24 H 0.35043 0.24940 -0.38483
H25 H 0.29919 0.35572 -0.34917
H26 H 0.48392 0.41146 -0.28843
H27 H 0.52796 0.34205 -0.37928
H28 H 0.69599 0.11595 -0.15757
H29 H 0.68768 0.09770 -0.26925
H30 H 0.80757 0.11967 -0.22157
H31 H 0.27464 0.29529 -0.18311
H32 H 0.22240 0.21827 -0.24635
Pb1A Pb -0.0007(3) 0.5084(3) -0.4969(2)
Pb2* Pb -0.0009(4) 0.9918(3) 0.0210(2)
Pb2A Pb -0.0009(4) 0.0082(3) -0.4790(2)
I1* I 0.0032(8) -0.2512(5) 0.0686(4)
I4A I 0.0045(6) 0.4435(4) 0.2586(3)
I8A I 0.0077(10) 0.0568(6) 0.2736(4)
#END

data_CSD_CIF_ZERSOH01
_audit_creation_date 2019-09-18
_audit_creation_method CSD-ConQuest-V1
_database_code_CSD ZERSOH01
_database_code_depnum_ccdc_archive 'CCDC 1939808'
_chemical_formula_sum 'C12 H32 I8 N4 Pb2'
_chemical_formula_moiety
;
2(C6 H16 N2 2+),(I8 Pb2 4-)n
;
_journal_coden_Cambridge 4
_journal_volume 141
_journal_year 2019
_journal_page_first 15972
_journal_name_full 'J.Am.Chem.Soc. '
loop_
_publ_author_name
"I.-H.Park"
"Qiannan Zhang"
"Ki Chang Kwon"
"Ziyu Zhu"
"Wei Yu"
"Kai Leng"
"D.Giovanni"
"Hwa Seob Choi"
"I.Abdelwahab"
"Qing-Hua Xu"
"Tze Chien Sum"
"Kian Ping Loh"
_chemical_name_systematic
;
catena-(bis(4-(ammoniomethyl)piperidin-1-ium) 
tetrakis(\m-iodo)-tetrakis(iodo)-di-lead)
;
_cell_volume   1658.949
_exptl_crystal_colour 'orange'
_exptl_crystal_density_diffrn 3.327
_exptl_special_details
;
Pc polymorph

;
_exptl_crystal_description 'block'
_diffrn_ambient_temperature 298
_diffrn_special_details
;
twin

;
#These two values have been output from a single CSD field.
_refine_ls_R_factor_gt 0.0956
_refine_ls_wR_factor_gt 0.0956
_symmetry_cell_setting monoclinic
_symmetry_space_group_name_H-M 'P c'
_symmetry_Int_Tables_number 7
loop_
_symmetry_equiv_pos_site_id
_symmetry_equiv_pos_as_xyz
1 x,y,z
2 x,-y,1/2+z
_cell_length_a 10.5315(2)
_cell_length_b 12.5444(3)
_cell_length_c 12.5572(3)
_cell_angle_alpha 90
_cell_angle_beta 89.99
_cell_angle_gamma 90
_cell_formula_units_Z 2
loop_
_atom_type_symbol
_atom_type_radius_bond
C 0.68
H 0.23
I 1.40
N 0.68
Pb 1.46
loop_
_atom_site_label
_atom_site_type_symbol
_atom_site_fract_x
_atom_site_fract_y
_atom_site_fract_z
Pb1 Pb 0.4811(3) 0.01249(16) 0.2160(2)
Pb2 Pb 0.4812(2) 0.51136(15) 0.2083(2)
I1 I 0.1764(5) 0.0335(8) 0.2366(8)
I2 I 0.7831(5) 0.0349(8) 0.2353(8)
I3 I 0.4789(6) -0.0577(4) -0.0402(5)
I4 I 0.4756(6) -0.2405(3) 0.2686(5)
I5 I 0.4747(7) 0.2614(3) 0.1552(5)
I6 I 0.1808(5) 0.5139(7) 0.2147(6)
I7 I 0.7795(5) 0.5152(7) 0.2156(6)
I8 I 0.4791(6) 0.5573(3) -0.0442(4)
N1 N 0.747(6) 0.253(6) 0.452(7)
H1 H 0.72710 0.19600 0.41380
H2 H 0.67390 0.28540 0.46840
N2 N 1.216(7) 0.298(8) 0.413(8)
H3 H 1.29720 0.27670 0.41270
H4 H 1.18470 0.29130 0.34730
H5 H 1.21180 0.36530 0.43330
C1 C 0.801(7) 0.216(9) 0.550(7)
H6 H 0.75280 0.15490 0.57450
H7 H 0.79270 0.27170 0.60320
C2 C 0.939(6) 0.185(7) 0.540(7)
H8 H 0.97520 0.17590 0.61080
H9 H 0.94640 0.11850 0.50210
C3 C 1.007(5) 0.270(7) 0.483(6)
H10 H 1.00200 0.33420 0.52690
C4 C 0.959(6) 0.297(8) 0.379(6)
H11 H 0.97210 0.23740 0.33060
H12 H 1.00400 0.35800 0.35130
C5 C 0.815(7) 0.322(8) 0.386(7)
H13 H 0.80420 0.39460 0.41160
H14 H 0.77860 0.31890 0.31470
C6 C 1.147(6) 0.234(8) 0.483(8)
H15 H 1.18200 0.24020 0.55380
H16 H 1.15260 0.16010 0.46070
N3 N 1.201(6) 0.214(6) -0.014(6)
H17 H 1.28470 0.20340 -0.01820
H18 H 1.17600 0.19280 0.05010
N4 N 0.742(6) 0.198(6) -0.014(7)
H19 H 0.66090 0.21320 -0.02710
H20 H 0.76510 0.14090 -0.05070
H21 H 0.75190 0.18580 0.05550
C7 C 1.177(6) 0.329(5) -0.024(9)
H22 H 1.21840 0.35520 -0.08770
H23 H 1.21360 0.36540 0.03650
C8 C 1.034(6) 0.357(5) -0.03(1)
H24 H 1.01240 0.40670 0.02630
H25 H 1.01560 0.39080 -0.09800
C9 C 0.958(5) 0.254(5) -0.018(6)
H26 H 0.96460 0.22290 0.05310
C10 C 0.996(6) 0.175(7) -0.106(8)
H27 H 0.97960 0.20580 -0.17550
H28 H 0.94610 0.11010 -0.09980
C11 C 1.138(6) 0.149(6) -0.095(7)
H29 H 1.14750 0.07410 -0.07600
H30 H 1.17960 0.15970 -0.16290
C12 C 0.821(5) 0.289(6) -0.045(9)
H31 H 0.79840 0.35270 -0.00540
H32 H 0.81270 0.30400 -0.12070
Pb1A Pb 0.4811(3) -0.01249(16) -0.2840(2)
Pb2* Pb 0.4812(2) -0.48864(15) 0.2083(2)
Pb2A Pb 0.4812(2) 0.48864(15) -0.2917(2)
I3A I 0.4789(6) 0.0577(4) 0.4598(5)
I4* I 0.4756(6) 0.7595(3) 0.2686(5)
I8A I 0.4791(6) 0.4427(3) 0.4558(4)
#END

data_CSD_CIF_ZERSOH02
_audit_creation_date 2019-09-18
_audit_creation_method CSD-ConQuest-V1
_database_code_CSD ZERSOH02
_database_code_depnum_ccdc_archive 'CCDC 1939809'
_chemical_formula_sum 'C6 H16 I4 N2 Pb1'
_chemical_formula_moiety
;
C6 H16 N2 2+,(I4 Pb1 4-)n
;
_journal_coden_Cambridge 4
_journal_volume 141
_journal_year 2019
_journal_page_first 15972
_journal_name_full 'J.Am.Chem.Soc. '
loop_
_publ_author_name
"I.-H.Park"
"Qiannan Zhang"
"Ki Chang Kwon"
"Ziyu Zhu"
"Wei Yu"
"Kai Leng"
"D.Giovanni"
"Hwa Seob Choi"
"I.Abdelwahab"
"Qing-Hua Xu"
"Tze Chien Sum"
"Kian Ping Loh"
_chemical_name_systematic
;
catena-(bis(4-(ammoniomethyl)piperidin-1-ium) bis(\m-iodo)-bis(iodo)-di-lead)
;
_cell_volume   1668.256
_exptl_crystal_colour 'orange'
_exptl_crystal_density_diffrn 3.309
_exptl_special_details
;
P21/c polymorph

;
_exptl_crystal_description 'plate'
_diffrn_ambient_temperature 373
_refine_special_details
;
C1,C2,C3,C4,C5,C6,N1,N2 disordered by symmetry over two configurations with 
occupancy 0.5; C10,C11,C12,C7,C8,C9,N3,N4 disordered by symmetry over two 
configurations with occupancy 0.5.
;
#These two values have been output from a single CSD field.
_refine_ls_R_factor_gt 0.1234
_refine_ls_wR_factor_gt 0.1234
_symmetry_cell_setting monoclinic
_symmetry_space_group_name_H-M 'P 21/c'
_symmetry_Int_Tables_number 14
loop_
_symmetry_equiv_pos_site_id
_symmetry_equiv_pos_as_xyz
1 x,y,z
2 -x,1/2+y,1/2-z
3 -x,-y,-z
4 x,-1/2-y,-1/2+z
_cell_length_a 10.6173(14)
_cell_length_b 12.5400(18)
_cell_length_c 12.530(2)
_cell_angle_alpha 90
_cell_angle_beta 89.983(6)
_cell_angle_gamma 90
_cell_formula_units_Z 4
loop_
_atom_type_symbol
_atom_type_radius_bond
C 0.68
H 0.23
I 1.40
N 0.68
Pb 1.46
loop_
_atom_site_label
_atom_site_type_symbol
_atom_site_fract_x
_atom_site_fract_y
_atom_site_fract_z
Pb1 Pb 0.49975(10) 0.23952(9) 0.25776(9)
I1 I 0.7984(3) 0.2292(5) 0.2647(5)
I2 I 0.2009(3) 0.2285(5) 0.2640(5)
I3 I 0.5000(3) 0.1922(3) 0.50520(18)
I4 I 0.4996(3) 0.49313(19) 0.3081(3)
N1 N 0.228(6) 0.550(7) 0.545(8)
H1 H 0.18350 0.57910 0.59810
H2 H 0.30840 0.56580 0.55570
N2 N -0.219(6) 0.569(9) 0.521(11)
H3 H -0.29800 0.55220 0.50550
H4 H -0.21250 0.58180 0.59100
H5 H -0.19630 0.62700 0.48510
C1 C 0.187(7) 0.599(8) 0.444(9)
H6 H 0.22880 0.56350 0.38470
H7 H 0.21000 0.67350 0.44260
C2 C 0.044(7) 0.587(8) 0.432(9)
H8 H 0.02260 0.55900 0.36230
H9 H 0.00300 0.65610 0.44050
C3 C 0.001(5) 0.510(5) 0.520(7)
H10 H 0.01020 0.54010 0.59220
C4 C 0.078(6) 0.408(5) 0.503(10)
H11 H 0.08220 0.38930 0.42820
H12 H 0.04160 0.34860 0.54230
C5 C 0.211(7) 0.434(7) 0.547(11)
H13 H 0.21970 0.40730 0.61900
H14 H 0.27470 0.40000 0.50260
C6 C -0.135(5) 0.480(7) 0.492(11)
H15 H -0.14240 0.46530 0.41660
H16 H -0.15980 0.41640 0.53120
N3 N 0.220(6) -0.034(8) 0.541(8)
H17 H 0.17470 -0.07310 0.58640
H18 H 0.30130 -0.04640 0.55300
N4 N -0.190(7) -0.053(11) 0.413(8)
H19 H -0.27260 -0.04330 0.40270
H20 H -0.14820 -0.02880 0.35640
H21 H -0.17520 -0.12290 0.42000
C7 C 0.187(6) -0.060(14) 0.430(8)
H22 H 0.21020 -0.13370 0.41500
H23 H 0.23270 -0.01440 0.38170
C8 C 0.044(6) -0.045(11) 0.415(6)
H24 H 0.02770 0.01060 0.36330
H25 H 0.00580 -0.11100 0.38960
C9 C -0.007(5) -0.015(5) 0.525(5)
H26 H 0.01130 -0.06800 0.58050
C10 C 0.048(7) 0.096(6) 0.550(12)
H27 H 0.02580 0.14620 0.49400
H28 H 0.01640 0.12240 0.61740
C11 C 0.191(6) 0.080(7) 0.554(15)
H29 H 0.23180 0.12070 0.49830
H30 H 0.22350 0.10460 0.62260
C12 C -0.150(5) 0.003(8) 0.509(9)
H31 H -0.19580 -0.02290 0.57050
H32 H -0.16660 0.07900 0.50160
Pb1A Pb 0.50025(10) 0.73952(9) 0.24224(9)
Pb1C Pb 0.49975(10) 0.26048(9) 0.75776(9)
I3C I 0.5000(3) 0.3078(3) 0.00520(18)
I4A I 0.5004(3) -0.00687(19) 0.1919(3)
N1B N -0.228(6) 0.450(7) 0.455(8)
H1B H -0.18350 0.42090 0.40190
H2B H -0.30840 0.43420 0.44430
N2B N 0.219(6) 0.431(9) 0.479(11)
H3B H 0.29800 0.44780 0.49450
H4B H 0.21250 0.41820 0.40900
H5B H 0.19630 0.37300 0.51490
C1B C -0.187(7) 0.401(8) 0.556(9)
H6B H -0.22880 0.43650 0.61530
H7B H -0.21000 0.32650 0.55740
C2B C -0.044(7) 0.413(8) 0.568(9)
H8B H -0.02260 0.44100 0.63770
H9B H -0.00300 0.34390 0.55950
C3B C -0.001(5) 0.490(5) 0.480(7)
H10B H -0.01020 0.45990 0.40780
C4B C -0.078(6) 0.592(5) 0.497(10)
H11B H -0.08220 0.61070 0.57180
H12B H -0.04160 0.65140 0.45770
C5B C -0.211(7) 0.566(7) 0.453(11)
H13B H -0.21970 0.59270 0.38100
H14B H -0.27470 0.60000 0.49740
C6B C 0.135(5) 0.520(7) 0.508(11)
H15B H 0.14240 0.53470 0.58340
H16B H 0.15980 0.58360 0.46880
N3B N -0.220(6) 0.034(8) 0.459(8)
H17B H -0.17470 0.07310 0.41360
H18B H -0.30130 0.04640 0.44700
N4B N 0.190(7) 0.053(11) 0.587(8)
H19B H 0.27260 0.04330 0.59730
H20B H 0.14820 0.02880 0.64360
H21B H 0.17520 0.12290 0.58000
C7B C -0.187(6) 0.060(14) 0.570(8)
H22B H -0.21020 0.13370 0.58500
H23B H -0.23270 0.01440 0.61830
C8B C -0.044(6) 0.045(11) 0.585(6)
H24B H -0.02770 -0.01060 0.63670
H25B H -0.00580 0.11100 0.61040
C9B C 0.007(5) 0.015(5) 0.475(5)
H26B H -0.01130 0.06800 0.41950
C10B C -0.048(7) -0.096(6) 0.450(12)
H27B H -0.02580 -0.14620 0.50600
H28B H -0.01640 -0.12240 0.38260
C11B C -0.191(6) -0.080(7) 0.446(15)
H29B H -0.23180 -0.12070 0.50170
H30B H -0.22350 -0.10460 0.37740
C12B C 0.150(5) -0.003(8) 0.491(9)
H31B H 0.19580 0.02290 0.42950
H32B H 0.16660 -0.07900 0.49840
#END
