
#######################################################################
#
#                 Cambridge Crystallographic Data Centre
#                                CCDC
#
#######################################################################
#
# If this CIF has been generated from an entry in the Cambridge
# Structural Database, then it will include bibliographic, chemical,
# crystal, experimental, refinement or atomic coordinate data resulting
# from the CCDC's data processing and validation procedures.
#
#######################################################################

data_CSD_CIF_WOGJEH
_audit_creation_date 2000-12-19
_audit_creation_method CSD-ConQuest-V1
_database_code_CSD WOGJEH
_database_code_depnum_ccdc_archive 'CCDC 150501'
_database_code_depnum_ccdc_journal 1145/194
_chemical_formula_sum 'C6 H18 I4 N2 Pb1'
_chemical_formula_moiety
;
(C6 H18 N2 2+)n,n(I4 Pb1 2-)
;
_journal_coden_Cambridge 1145
_journal_volume 10
_journal_year 2000
_journal_page_first 515
_journal_name_full 'J.Mater.Chem. '
loop_
_publ_author_name
"G.A.Mousdis"
"G.C.Papavassiliou"
"C.P.Raptopoulou"
"A.Terzis"
_chemical_name_systematic
;
catena-(1,6-Diammoniohexane bis(\m~2~-iodo)-diiodo-lead)
;
_chemical_melting_point 553.15
_cell_volume    870.571
_exptl_crystal_colour 'yellow-orange'
_exptl_crystal_density_diffrn 3.178
_exptl_special_details
;
Melts above 553.15K
isostructural with the bromo and chloro analogues

;
_exptl_crystal_description 'parallelepiped'
_exptl_crystal_preparation 'water/HI'
_diffrn_ambient_temperature ?
_diffrn_special_details
;
The study was carried out at room temperature,in the range 283-303K

;
#These two values have been output from a single CSD field.
_refine_ls_R_factor_gt 0.0284
_refine_ls_wR_factor_gt 0.0284
_symmetry_cell_setting monoclinic
_symmetry_space_group_name_H-M 'P 21/c'
_symmetry_Int_Tables_number 14
loop_
_symmetry_equiv_pos_site_id
_symmetry_equiv_pos_as_xyz
1 x,y,z
2 -x,1/2+y,1/2-z
3 -x,-y,-z
4 x,-1/2-y,-1/2+z
_cell_length_a 11.856(5)
_cell_length_b 8.486(4)
_cell_length_c 9.043(4)
_cell_angle_alpha 90
_cell_angle_beta 106.89(1)
_cell_angle_gamma 90
_cell_formula_units_Z 2
loop_
_atom_type_symbol
_atom_type_radius_bond
C 0.68
H 0.23
I 1.40
N 0.68
Pb 1.54
loop_
_atom_site_label
_atom_site_type_symbol
_atom_site_fract_x
_atom_site_fract_y
_atom_site_fract_z
Pb1 Pb 0.00000 0.00000 0.00000
I1 I -0.27320(4) 0.08049(6) -0.07685(6)
I2 I -0.04948(5) -0.19265(6) -0.32000(6)
N1 N -0.2394(7) 0.0102(8) -0.663(1)
H1 H -0.2061(30) 0.0229(50) -0.7386(24)
H2 H -0.1867(23) -0.0295(31) -0.5802(38)
H3 H -0.2645(10) 0.1030(21) -0.6391(59)
C1 C -0.3407(9) -0.0994(12) -0.7146(11)
H4 H -0.3131(9) -0.1998(12) -0.7420(11)
H5 H -0.3969(9) -0.0569(12) -0.8063(11)
C2 C -0.4013(8) -0.1254(10) -0.5918(11)
H6 H -0.3435(8) -0.1634(10) -0.4992(11)
H7 H -0.4600(8) -0.2075(10) -0.6266(11)
C3 C -0.4611(8) 0.0194(10) -0.5502(11)
H8 H -0.4013(8) 0.0941(10) -0.4965(11)
H9 H -0.5083(8) 0.0692(10) -0.6444(11)
I1B I 0.27320(4) -0.08049(6) 0.07685(6)
I2C I -0.04948(5) -0.30735(6) 0.18000(6)
I2B I 0.04948(5) 0.19265(6) 0.32000(6)
I2A I 0.04948(5) 0.30735(6) -0.18000(6)
Pb1C Pb 0.00000 -0.50000 -0.50000
Pb1C* Pb 0.00000 0.50000 0.50000
C3B C -0.5389(8) -0.0194(10) -0.4498(11)
C2B C -0.5987(8) 0.1254(10) -0.4082(11)
H8B H -0.5987(8) -0.0941(10) -0.5035(11)
H9B H -0.4917(8) -0.0692(10) -0.3556(11)
C1B C -0.6593(9) 0.0994(12) -0.2854(11)
H6B H -0.6565(8) 0.1634(10) -0.5008(11)
H7B H -0.5400(8) 0.2075(10) -0.3734(11)
N1B N -0.7606(7) -0.0102(8) -0.337(1)
H4B H -0.6869(9) 0.1998(12) -0.2580(11)
H5B H -0.6031(9) 0.0569(12) -0.1937(11)
H1B H -0.7939(30) -0.0229(50) -0.2614(24)
H2B H -0.8133(23) 0.0295(31) -0.4198(38)
H3B H -0.7355(10) -0.1030(21) -0.3609(59)
#END

data_CSD_CIF_WOGJEH02
_audit_creation_date 2016-09-23
_audit_creation_method CSD-ConQuest-V1
_database_code_CSD WOGJEH02
_database_code_depnum_ccdc_archive 'CCDC 1420433'
_chemical_formula_sum 'C6 H18 I4 N2 Pb1'
_chemical_formula_moiety
;
(C6 H18 N2 2+)n,n(I4 Pb1 2-)
;
_journal_coden_Cambridge 1699
_journal_volume 4
_journal_year 2016
_journal_page_first 15638
_journal_name_full 'J.Mater.Chem.A '
loop_
_publ_author_name
"M.Safdari"
"P.H.Svensson"
"Minh Tam Hoang"
"Ilwhan Oh"
"L.Kloo"
"J.M.Gardner"
_chemical_name_systematic
;
catena-[hexane-1,6-diaminium bis(\m-iodo)-diiodo-lead(ii)]
;
_cell_volume    860.833
_exptl_crystal_density_diffrn 3.214
_exptl_crystal_description 'block'
_diffrn_ambient_temperature 200
#These two values have been output from a single CSD field.
_refine_ls_R_factor_gt 0.0598
_refine_ls_wR_factor_gt 0.0598
_symmetry_cell_setting monoclinic
_symmetry_space_group_name_H-M 'P 21/c'
_symmetry_Int_Tables_number 14
loop_
_symmetry_equiv_pos_site_id
_symmetry_equiv_pos_as_xyz
1 x,y,z
2 -x,1/2+y,1/2-z
3 -x,-y,-z
4 x,-1/2-y,-1/2+z
_cell_length_a 11.8055(6)
_cell_length_b 8.4509(4)
_cell_length_c 9.0262(5)
_cell_angle_alpha 90
_cell_angle_beta 107.073(2)
_cell_angle_gamma 90
_cell_formula_units_Z 2
loop_
_atom_type_symbol
_atom_type_radius_bond
C 0.68
H 0.23
I 1.40
N 0.68
Pb 1.46
loop_
_atom_site_label
_atom_site_type_symbol
_atom_site_fract_x
_atom_site_fract_y
_atom_site_fract_z
Pb1 Pb 1.00000 0.00000 1.00000
I1 I 0.95026(3) 0.19209(4) 0.67949(4)
I2 I 0.72611(3) -0.08058(5) 0.92281(5)
C1 C 0.5385(6) -0.0187(7) 0.4494(8)
H1 H 0.49070 -0.06920 0.35530
H2 H 0.59930 -0.09320 0.50300
N1 N 0.7605(6) -0.0106(6) 0.3332(10)
H3 H 0.81630 0.03200 0.41190
H4 H 0.78980 -0.02750 0.25430
H5 H 0.73690 -0.10210 0.36310
C2 C 0.5977(6) 0.1275(7) 0.4063(8)
H6 H 0.53830 0.20950 0.37130
H7 H 0.65620 0.16640 0.49860
C3 C 0.6570(6) 0.1003(8) 0.2832(8)
H8 H 0.68400 0.20100 0.25460
H9 H 0.59960 0.05730 0.19210
I1B I 1.04974(3) -0.19209(4) 1.32051(4)
I2B I 1.27389(3) 0.08058(5) 1.07719(5)
Pb1A Pb 1.00000 -0.50000 1.50000
Pb1A* Pb 1.00000 0.50000 0.50000
I1A I 1.04974(3) -0.30791(4) 0.82051(4)
I1C I 0.95026(3) 0.30791(4) 1.17949(4)
C1B C 0.4615(6) 0.0187(7) 0.5506(8)
H1B H 0.50930 0.06920 0.64470
H2B H 0.40070 0.09320 0.49700
N1B N 0.2395(6) 0.0106(6) 0.6668(10)
H3B H 0.18370 -0.03200 0.58810
H4B H 0.21020 0.02750 0.74570
H5B H 0.26310 0.10210 0.63690
C2B C 0.4023(6) -0.1275(7) 0.5937(8)
H6B H 0.46170 -0.20950 0.62870
H7B H 0.34380 -0.16640 0.50140
C3B C 0.3430(6) -0.1003(8) 0.7168(8)
H8B H 0.31600 -0.20100 0.74540
H9B H 0.40040 -0.05730 0.80790
#END

data_CSD_CIF_WOGJIL
_audit_creation_date 2000-12-19
_audit_creation_method CSD-ConQuest-V1
_database_code_CSD WOGJIL
_database_code_depnum_ccdc_archive 'CCDC 150502'
_database_code_depnum_ccdc_journal 1145/194
_chemical_formula_sum 'C6 H18 Br4 N2 Pb1'
_chemical_formula_moiety
;
(C6 H18 N2 2+)n,n(Br4 Pb1 2-)
;
_journal_coden_Cambridge 1145
_journal_volume 10
_journal_year 2000
_journal_page_first 515
_journal_name_full 'J.Mater.Chem. '
loop_
_publ_author_name
"G.A.Mousdis"
"G.C.Papavassiliou"
"C.P.Raptopoulou"
"A.Terzis"
_chemical_name_systematic
;
catena-(1,6-Diammoniohexane bis(\m~2~-bromo)-dibromo-lead)
;
_chemical_melting_point 553.15
_cell_volume    776.735
_exptl_crystal_colour 'colorless'
_exptl_crystal_density_diffrn 2.758
_exptl_special_details
;
Melts above 553.15K
isostructural with the iodo and chloro analogues

;
_exptl_crystal_description 'parallelepiped'
_diffrn_ambient_temperature ?
_diffrn_special_details
;
The study was carried out at room temperature,in the range 283-303K

;
#These two values have been output from a single CSD field.
_refine_ls_R_factor_gt 0.0333
_refine_ls_wR_factor_gt 0.0333
_symmetry_cell_setting monoclinic
_symmetry_space_group_name_H-M 'P 21/c'
_symmetry_Int_Tables_number 14
loop_
_symmetry_equiv_pos_site_id
_symmetry_equiv_pos_as_xyz
1 x,y,z
2 x,1/2-y,1/2+z
3 -x,-y,-z
4 -x,-1/2+y,-1/2-z
_cell_length_a 12.02(1)
_cell_length_b 8.045(8)
_cell_length_c 8.342(9)
_cell_angle_alpha 90
_cell_angle_beta 105.66(3)
_cell_angle_gamma 90
_cell_formula_units_Z 2
loop_
_atom_type_symbol
_atom_type_radius_bond
C 0.68
Br 1.21
N 0.68
Pb 1.54
loop_
_atom_site_label
_atom_site_type_symbol
_atom_site_fract_x
_atom_site_fract_y
_atom_site_fract_z
Pb1 Pb 0.00000 0.00000 0.00000
Br1 Br -0.2519(2) 0.0738(2) -0.0654(3)
Br2 Br -0.0434(2) -0.1948(2) -0.3182(2)
N1 N -0.2184(17) 0.0251(18) -0.6460(22)
C1 C -0.3345(41) -0.0922(36) -0.6981(51)
C2 C -0.3858(48) -0.1129(49) -0.5729(56)
C3 C -0.4640(37) 0.0339(46) -0.5669(54)
Br1B Br 0.2519(2) -0.0738(2) 0.0654(3)
Br2A Br -0.0434(2) -0.3052(2) 0.1818(2)
Br2B Br 0.0434(2) 0.1948(2) 0.3182(2)
Br2C Br 0.0434(2) 0.3052(2) -0.1818(2)
Pb1A Pb 0.00000 -0.50000 -0.50000
C3B C -0.5360(37) -0.0339(46) -0.4331(54)
C2B C -0.6142(48) 0.1129(49) -0.4271(56)
C1B C -0.6655(41) 0.0922(36) -0.3019(51)
N1B N -0.7816(17) -0.0251(18) -0.3540(22)
Pb1A* Pb 0.00000 0.50000 0.50000
#END

data_CSD_CIF_WOGJOR01
_audit_creation_date 2019-05-07
_audit_creation_method CSD-ConQuest-V1
_database_code_CSD WOGJOR01
_database_code_depnum_ccdc_archive 'CCDC 1914631'
_chemical_formula_sum 'C6 H18 Cl4 N2 Pb1'
_chemical_formula_moiety
;
C6 H18 N2 2+,(Cl4 Pb1 2-)n
;
_journal_coden_Cambridge 1320
_journal_year 1996
_journal_name_full 'Thesis '
loop_
_publ_author_name
"T.Maris"
"R.Zouari"
"R.Duplessix"
"J.-M.Leger"
"NGuyen Ba Chanh"
_chemical_name_systematic
;
catena-(1,6-Diammoniohexane bis(\m-chloro)-dichloro-lead(ii))
;
_cell_volume   1501.597
_exptl_crystal_colour 'colorless'
_exptl_crystal_density_diffrn 2.067
_exptl_crystal_description 'platelet'
_exptl_crystal_preparation 'water'
_diffrn_ambient_temperature 298
#These two values have been output from a single CSD field.
_refine_ls_R_factor_gt 0.0447
_refine_ls_wR_factor_gt 0.0447
_symmetry_cell_setting monoclinic
_symmetry_space_group_name_H-M 'P 21/c'
_symmetry_Int_Tables_number 14
loop_
_symmetry_equiv_pos_site_id
_symmetry_equiv_pos_as_xyz
1 x,y,z
2 -x,1/2+y,1/2-z
3 -x,-y,-z
4 x,-1/2-y,-1/2+z
_cell_length_a 7.9321(8)
_cell_length_b 7.7712(9)
_cell_length_c 24.6521(9)
_cell_angle_alpha 90
_cell_angle_beta 98.829(6)
_cell_angle_gamma 90
_cell_formula_units_Z 4
loop_
_atom_type_symbol
_atom_type_radius_bond
C 0.68
H 0.23
Cl 0.99
N 0.68
Pb 1.46
loop_
_atom_site_label
_atom_site_type_symbol
_atom_site_fract_x
_atom_site_fract_y
_atom_site_fract_z
Pb1 Pb 0.238657(15) 0.611526(7) 0.251347(2)
Cl1 Cl 0.21017(15) 0.58899(13) 0.13502(4)
Cl2 Cl 0.54832(9) 0.41725(5) 0.248573(16)
Cl3 Cl -0.08301(9) 0.78446(6) 0.24657(2)
Cl4 Cl 0.33820(15) 0.58384(14) 0.36961(4)
N1 N 0.2840(3) 0.18213(18) 0.15251(6)
H1 H 0.28520 0.16360 0.18820
H2 H 0.26430 0.29310 0.14510
H3 H 0.38450 0.15280 0.14340
C1 C 0.1477(6) 0.0771(6) 0.12046(17)
H4 H 0.16750 -0.04370 0.12920
H5 H 0.03810 0.10870 0.13040
C2 C 0.1446(9) 0.1041(6) 0.06143(19)
H6 H 0.25470 0.07460 0.05150
H7 H 0.12190 0.22420 0.05240
C3 C 0.0058(9) -0.0086(8) 0.0293(2)
H8 H 0.02890 -0.12800 0.03930
H9 H -0.10330 0.02160 0.03980
N2 N 0.3861(4) 0.1767(2) 0.35546(7)
H10 H 0.35460 0.16460 0.31940
H11 H 0.49310 0.14060 0.36470
H12 H 0.37910 0.28710 0.36450
C4 C 0.2701(6) 0.0718(6) 0.38539(16)
H13 H 0.15330 0.11030 0.37500
H14 H 0.27600 -0.04820 0.37500
C5 C 0.3193(11) 0.0883(7) 0.4456(2)
H15 H 0.22680 0.04470 0.46330
H16 H 0.33300 0.20950 0.45470
C6 C 0.4805(7) -0.0044(6) 0.46895(15)
H17 H 0.57510 0.04510 0.45360
H18 H 0.47060 -0.12420 0.45780
Pb1A Pb -0.238657(15) 1.111526(7) 0.248653(2)
Pb1A* Pb 0.761343(15) 0.111526(7) 0.248653(2)
Cl2A Cl 0.45168(9) 0.91725(5) 0.251427(16)
Cl3A Cl 0.08301(9) 0.28446(6) 0.25343(2)
N1B N -0.2840(3) -0.18213(18) -0.15251(6)
H1B H -0.28520 -0.16360 -0.18820
H2B H -0.26430 -0.29310 -0.14510
H3B H -0.38450 -0.15280 -0.14340
C1B C -0.1477(6) -0.0771(6) -0.12046(17)
H4B H -0.16750 0.04370 -0.12920
H5B H -0.03810 -0.10870 -0.13040
C2B C -0.1446(9) -0.1041(6) -0.06143(19)
H6B H -0.25470 -0.07460 -0.05150
H7B H -0.12190 -0.22420 -0.05240
C3B C -0.0058(9) 0.0086(8) -0.0293(2)
H8B H -0.02890 0.12800 -0.03930
H9B H 0.10330 -0.02160 -0.03980
N2B N 0.6139(4) -0.1767(2) 0.64454(7)
H10B H 0.64540 -0.16460 0.68060
H11B H 0.50690 -0.14060 0.63530
H12B H 0.62090 -0.28710 0.63550
C4B C 0.7299(6) -0.0718(6) 0.61461(16)
H13B H 0.84670 -0.11030 0.62500
H14B H 0.72400 0.04820 0.62500
C5B C 0.6807(11) -0.0883(7) 0.5544(2)
H15B H 0.77320 -0.04470 0.53670
H16B H 0.66700 -0.20950 0.54530
C6B C 0.5195(7) 0.0044(6) 0.53105(15)
H17B H 0.42490 -0.04510 0.54640
H18B H 0.52940 0.12420 0.54220
#END
