
#######################################################################
#
#                 Cambridge Crystallographic Data Centre
#                                CCDC
#
#######################################################################
#
# If this CIF has been generated from an entry in the Cambridge
# Structural Database, then it will include bibliographic, chemical,
# crystal, experimental, refinement or atomic coordinate data resulting
# from the CCDC's data processing and validation procedures.
#
#######################################################################

data_CSD_CIF_CUFMIC
_audit_creation_date 2019-12-05
_audit_creation_method CSD-ConQuest-V1
_database_code_CSD CUFMIC
_database_code_depnum_ccdc_archive 'CCDC 1948517'
_chemical_formula_sum 'C6 H10 Cl4 N2 Pb1'
_chemical_formula_moiety
;
C6 H10 N2 2+,(Cl4 Pb1 2-)n
;
_journal_coden_Cambridge 440
_journal_volume 44
_journal_year 2020
_journal_page_first 171
_journal_name_full 'New J.Chem. '
loop_
_publ_author_name
"Mi-Hee Jung"
_chemical_name_systematic
;
catena-[4-(ammoniomethyl)pyridin-1-ium bis(\m-chloro)-dichloro-lead]
;
_cell_volume   2400.825
_exptl_crystal_colour 'colorless'
_exptl_crystal_density_diffrn 2.541
_exptl_crystal_description 'needle'
_diffrn_ambient_temperature 293
_diffrn_radiation_probe x-ray
_diffrn_source synchrotron
#These two values have been output from a single CSD field.
_refine_ls_R_factor_gt 0.0495
_refine_ls_wR_factor_gt 0.0495
_symmetry_cell_setting orthorhombic
_symmetry_space_group_name_H-M 'P b c a'
_symmetry_Int_Tables_number 61
loop_
_symmetry_equiv_pos_site_id
_symmetry_equiv_pos_as_xyz
1 x,y,z
2 1/2-x,-y,1/2+z
3 1/2+x,1/2-y,-z
4 -x,1/2+y,1/2-z
5 -x,-y,-z
6 -1/2+x,y,-1/2-z
7 -1/2-x,-1/2+y,z
8 x,-1/2-y,-1/2+z
_cell_length_a 13.428(3)
_cell_length_b 7.6610(15)
_cell_length_c 23.338(5)
_cell_angle_alpha 90
_cell_angle_beta 90
_cell_angle_gamma 90
_cell_formula_units_Z 8
loop_
_atom_type_symbol
_atom_type_radius_bond
C 0.68
H 0.23
Cl 0.99
N 0.68
Pb 1.46
loop_
_atom_site_label
_atom_site_type_symbol
_atom_site_fract_x
_atom_site_fract_y
_atom_site_fract_z
Pb1 Pb 0.32423(2) -0.00990(3) 0.13479(2)
Cl1 Cl 0.49461(9) -0.1092(2) 0.18894(5)
Cl2 Cl 0.44771(11) 0.1993(3) 0.06895(7)
Cl3 Cl 0.28932(11) 0.2602(2) 0.21718(6)
Cl4 Cl 0.15198(10) 0.1816(2) 0.06455(5)
C1 C 0.3092(5) 0.1198(10) 0.4617(2)
H1 H 0.33129 0.16973 0.49569
C2 C 0.3769(4) 0.0667(10) 0.4207(2)
H2 H 0.44488 0.07847 0.42741
C3 C 0.3436(6) -0.0038(8) 0.3699(3)
C4 C 0.2401(5) -0.0221(10) 0.3619(2)
H3 H 0.21551 -0.06931 0.32806
C5 C 0.1754(4) 0.0297(12) 0.4043(4)
H4 H 0.10705 0.01639 0.39952
C6 C 0.4081(4) -0.0604(12) 0.3210(3)
H5 H 0.39964 -0.18490 0.31533
H6 H 0.38583 -0.00197 0.28646
N1 N 0.2115(4) 0.0992(9) 0.4522(2)
H7 H 0.17040 0.13237 0.47828
N2 N 0.5145(4) -0.0234(9) 0.3294(3)
H8 H 0.54860 -0.06006 0.29901
H9 H 0.52325 0.09097 0.33376
H10 H 0.53606 -0.07879 0.36056
Pb1F Pb 0.17577(2) 0.49010(3) 0.13479(2)
Cl3F Cl 0.21068(11) -0.2398(2) 0.21718(6)
Cl4F Cl 0.34802(10) -0.3184(2) 0.06455(5)
#END

data_CSD_CIF_HOLJAW
_audit_creation_date 2019-07-23
_audit_creation_method CSD-ConQuest-V1
_database_code_CSD HOLJAW
_database_code_depnum_ccdc_archive 'CCDC 1942547'
_chemical_formula_sum 'C12 H20 I8 N4 Pb2'
_chemical_formula_moiety
;
2(C6 H10 N2 2+),(I8 Pb2 4-)n
;
_journal_coden_Cambridge 4
_journal_volume 141
_journal_year 2019
_journal_page_first 12880
_journal_name_full 'J.Am.Chem.Soc. '
loop_
_publ_author_name
"Xiaotong Li"
"Weijun Ke"
"B.Traore"
"Peijun Guo"
"I.Hadar"
"M.Kepenekian"
"Jacky Even"
"C.Katan"
"C.C.Stoumpos"
"R.D.Schaller"
"M.G.Kanatzidis"
_chemical_name_systematic
;
catena-[bis(4-(ammoniomethyl)pyridin-1-ium) 
tetrakis(\m-iodo)-tetraiodo-di-lead]
;
_cell_volume   1599.096
_exptl_crystal_colour 'orange'
_exptl_crystal_density_diffrn 3.427
_exptl_special_details
;
Pn polymorph

;
_exptl_crystal_description 'square plate'
_diffrn_ambient_temperature 293
#These two values have been output from a single CSD field.
_refine_ls_R_factor_gt 0.0616
_refine_ls_wR_factor_gt 0.0616
_symmetry_cell_setting monoclinic
_symmetry_space_group_name_H-M 'P n'
_symmetry_Int_Tables_number 7
loop_
_symmetry_equiv_pos_site_id
_symmetry_equiv_pos_as_xyz
1 x,y,z
2 1/2+x,-y,1/2+z
_cell_length_a 12.3348(12)
_cell_length_b 10.5038(7)
_cell_length_c 12.3423(12)
_cell_angle_alpha 90
_cell_angle_beta 90.002(8)
_cell_angle_gamma 90
_cell_formula_units_Z 2
loop_
_atom_type_symbol
_atom_type_radius_bond
C 0.68
H 0.23
I 1.40
N 0.68
Pb 1.46
loop_
_atom_site_label
_atom_site_type_symbol
_atom_site_fract_x
_atom_site_fract_y
_atom_site_fract_z
Pb1 Pb 0.42421(18) -0.00242(19) 0.11755(16)
Pb2 Pb 0.42258(18) -0.00268(19) 0.61695(16)
I1 I 0.4031(3) 0.3027(2) 0.1140(2)
I2 I 0.3982(3) 0.3013(3) 0.6183(3)
I3 I 0.4479(2) -0.3033(2) 0.6120(2)
I4 I 0.4530(3) -0.3024(3) 0.1201(3)
I5 I 0.6745(2) 0.0307(3) 0.1820(2)
I6 I 0.3614(3) -0.0064(3) 0.3684(2)
I7 I 0.1745(2) -0.0313(3) 0.0498(2)
I8 I 0.4948(2) 0.0020(2) -0.1319(2)
C1 C 0.168(3) -0.3619(12) 0.4770(13)
C2 C 0.161(3) -0.3361(12) 0.2918(14)
C3 C 0.169(2) -0.4876(11) 0.4643(11)
C4 C 0.163(2) -0.4618(13) 0.2790(12)
N1 N 0.164(2) -0.2861(10) 0.3907(16)
C5 C 0.1676(19) -0.5376(10) 0.3652(12)
N2 N 0.165(2) -0.7428(11) 0.4595(17)
C6 C 0.172(3) -0.6793(10) 0.3508(15)
H1 H 0.17021 -0.32585 0.54844
H2 H 0.15764 -0.28144 0.22953
H3 H 0.17051 -0.54236 0.52656
H4 H 0.16014 -0.49792 0.20761
H5 H 0.16407 -0.20388 0.39904
H6 H 0.17318 -0.82462 0.45157
H7 H 0.21672 -0.71373 0.50108
H8 H 0.10275 -0.72693 0.48879
H9 H 0.11189 -0.70628 0.30686
H10 H 0.23861 -0.70235 0.31598
C7 C 0.2613(16) -0.3561(13) -0.119(2)
C8 C 0.0758(15) -0.3805(12) -0.123(2)
C9 C 0.2734(12) -0.4816(14) -0.126(3)
C10 C 0.1867(12) -0.5565(10) -0.133(2)
N3 N 0.1625(19) -0.3055(10) -0.117(2)
N4 N 0.0919(17) -0.7614(12) -0.134(2)
C11 C 0.0879(12) -0.5060(12) -0.131(3)
C12 C 0.2005(14) -0.6979(11) -0.143(3)
H11 H 0.32392 -0.30195 -0.11515
H12 H 0.00441 -0.34406 -0.12096
H13 H 0.34477 -0.51821 -0.12620
H14 H 0.15454 -0.22338 -0.11286
H15 H 0.09856 -0.84208 -0.14792
H16 H 0.06701 -0.75193 -0.06811
H17 H 0.04713 -0.72687 -0.17947
H18 H 0.02531 -0.56003 -0.13550
H19 H 0.23223 -0.71787 -0.21154
H20 H 0.24695 -0.72791 -0.08566
Pb2* Pb 0.42258(18) -0.00268(19) -0.38305(16)
Pb2A Pb -0.07742(18) 0.00268(19) 0.11695(16)
Pb2A* Pb 0.92258(18) 0.00268(19) 0.11695(16)
I5A I 0.1745(2) -0.0307(3) 0.6820(2)
I7A I 0.6745(2) 0.0313(3) 0.5498(2)
I8* I 0.4948(2) 0.0020(2) 0.8681(2)
#END

data_CSD_CIF_HOLJAW01
_audit_creation_date 2020-02-26
_audit_creation_method CSD-ConQuest-V1
_database_code_CSD HOLJAW01
_database_code_depnum_ccdc_archive 'CCDC 1968137'
_chemical_formula_sum 'C6 H10 I4 N2 Pb1'
_chemical_formula_moiety
;
C6 H10 N2 2+,(I4 Pb1 2-)n
;
_journal_coden_Cambridge 229
_journal_year 2020
_journal_page_first 125577
_journal_name_full 'J.Cryst.Growth '
loop_
_publ_author_name
"Thi-Mai Huong Duong"
"Shunpei Nobusue"
"H.Tada"
_chemical_name_systematic
;
catena-(4-(ammoniomethyl)pyridinium bis(\m-iodo)-bis(iodo)-lead)
;
_cell_volume   1515.032
_exptl_crystal_colour 'colorless'
_exptl_special_details
;
P21/c polymorph

;
_exptl_crystal_description 'prism'
_diffrn_ambient_temperature 273
#These two values have been output from a single CSD field.
_refine_ls_R_factor_gt 0.0525
_refine_ls_wR_factor_gt 0.0525
_symmetry_cell_setting monoclinic
_symmetry_space_group_name_H-M 'P 21/c'
_symmetry_Int_Tables_number 14
loop_
_symmetry_equiv_pos_site_id
_symmetry_equiv_pos_as_xyz
1 x,y,z
2 -x,1/2+y,1/2-z
3 -x,-y,-z
4 x,-1/2-y,-1/2+z
_cell_length_a 13.020(6)
_cell_length_b 14.413(8)
_cell_length_c 8.389(4)
_cell_angle_alpha 90
_cell_angle_beta 105.766(17)
_cell_angle_gamma 90
_cell_formula_units_Z 4
loop_
_atom_type_symbol
_atom_type_radius_bond
C 0.68
H 0.23
I 1.40
N 0.68
Pb 1.46
loop_
_atom_site_label
_atom_site_type_symbol
_atom_site_fract_x
_atom_site_fract_y
_atom_site_fract_z
Pb1 Pb 0.76586(4) 0.33119(3) 0.11635(5)
I1 I 0.62071(6) 0.34121(5) 0.37810(9)
I2 I 0.61486(7) 0.46357(6) -0.13897(9)
I3 I 0.93791(6) 0.29056(6) -0.08527(9)
I4 I 0.88400(6) 0.50839(6) 0.27044(10)
N1 N 0.6099(8) 0.7788(6) 0.4618(12)
H1 H 0.56485 0.81961 0.41026
N2 N 0.8244(9) 0.4878(7) 0.6592(14)
H2 H 0.87776 0.45301 0.71808
H3 H 0.76317 0.46827 0.67554
H4 H 0.82117 0.48322 0.55217
C1 C 0.6651(8) 0.6240(8) 0.5020(13)
H5 H 0.65336 0.56158 0.47498
C2 C 0.7566(8) 0.6507(7) 0.6199(12)
C3 C 0.8425(10) 0.5849(9) 0.7117(16)
H6 H 0.91029 0.60490 0.69624
H7 H 0.84780 0.58879 0.82915
C4 C 0.5910(9) 0.6891(7) 0.4242(15)
H8 H 0.52865 0.67102 0.34642
C5 C 0.7726(10) 0.7439(7) 0.6559(14)
H9 H 0.83430 0.76396 0.73286
C6 C 0.6966(9) 0.8066(8) 0.5770(15)
H10 H 0.70559 0.86918 0.60419
Pb1C Pb 0.76586(4) 0.16881(3) -0.38365(5)
Pb1C* Pb 0.76586(4) 0.16881(3) 0.61635(5)
I1C I 0.62071(6) 0.15879(5) -0.12190(9)
I3C I 0.93791(6) 0.20944(6) 0.41473(9)
#END

data_CSD_CIF_JIQMUS
_audit_creation_date 2008-02-05
_audit_creation_method CSD-ConQuest-V1
_database_code_CSD JIQMUS
_database_code_depnum_ccdc_archive 'CCDC 666180'
_chemical_formula_sum 'C6 H10 Br4 N2 Pb1'
_chemical_formula_moiety
;
(C6 H10 N2 2+)n,n(Br4 Pb1 2-)
;
_journal_coden_Cambridge 971
_journal_volume 9
_journal_year 2007
_journal_page_first 855
_journal_name_full 'Solid State Sciences '
loop_
_publ_author_name
"Yinyan Li"
"Guoli Zheng"
"Cuikun Lin"
"Jun Lin"
_chemical_name_systematic
;
catena-(4-(ammoniomethyl)pyridinium bis(\m~2~-bromo)-dibromo-lead)
;
_cell_volume   1307.299
_exptl_crystal_density_diffrn 3.236
_diffrn_ambient_temperature 293
#These two values have been output from a single CSD field.
_refine_ls_R_factor_gt 0.0574
_refine_ls_wR_factor_gt 0.0574
_symmetry_cell_setting monoclinic
_symmetry_space_group_name_H-M 'P 21/c'
_symmetry_Int_Tables_number 14
loop_
_symmetry_equiv_pos_site_id
_symmetry_equiv_pos_as_xyz
1 x,y,z
2 -x,1/2+y,1/2-z
3 -x,-y,-z
4 x,-1/2-y,-1/2+z
_cell_length_a 12.3851(10)
_cell_length_b 13.8278(11)
_cell_length_c 7.9202(6)
_cell_angle_alpha 90
_cell_angle_beta 105.464(1)
_cell_angle_gamma 90
_cell_formula_units_Z 4
loop_
_atom_type_symbol
_atom_type_radius_bond
C 0.68
H 0.23
Br 1.21
N 0.68
Pb 1.68
loop_
_atom_site_label
_atom_site_type_symbol
_atom_site_fract_x
_atom_site_fract_y
_atom_site_fract_z
C1 C 0.655(1) 0.0877(9) 0.2864(19)
H1 H 0.58520 0.10880 0.30820
H2 H 0.64620 0.09220 0.16130
C2 C 0.7448(8) 0.1548(8) 0.3764(14)
C3 C 0.7276(10) 0.2544(9) 0.3438(17)
H3 H 0.66190 0.27580 0.26530
C4 C 0.8049(10) 0.3187(9) 0.4246(18)
H4 H 0.79330 0.38430 0.40050
C5 C 0.9225(10) 0.1957(9) 0.5752(17)
H5 H 0.99040 0.17650 0.65060
C6 C 0.8415(9) 0.1266(8) 0.4945(16)
H6 H 0.85390 0.06140 0.52190
N1 N 0.6732(9) -0.0130(7) 0.3382(15)
H7 H 0.74080 -0.03130 0.33120
H8 H 0.62130 -0.04950 0.26730
H9 H 0.66890 -0.01990 0.44800
N2 N 0.9000(9) 0.2886(7) 0.5415(15)
H10 H 0.94730 0.33110 0.59560
Br1 Br 0.87882(10) 0.95582(9) 1.13895(16)
Br2 Br 0.61607(9) 1.00096(8) 0.73329(17)
Br3 Br 0.56248(10) 0.79261(9) 1.09112(16)
Br4 Br 0.87186(9) 0.84545(9) 0.62556(16)
Pb1 Pb 0.73030(3) 0.82871(3) 0.88391(5)
Br3C Br 0.56248(10) 0.70739(9) 0.59112(16)
Br4C Br 0.87186(9) 0.65455(9) 1.12556(16)
Pb1C Pb 0.73030(3) 0.67129(3) 1.38391(5)
Pb1C* Pb 0.73030(3) 0.67129(3) 0.38391(5)
#END

data_CSD_CIF_JIQMUS01
_audit_creation_date 2019-12-05
_audit_creation_method CSD-ConQuest-V1
_database_code_CSD JIQMUS01
_database_code_depnum_ccdc_archive 'CCDC 1948516'
_chemical_formula_sum 'C6 H10 Br4 N2 Pb1'
_chemical_formula_moiety
;
C6 H10 N2 2+,(Br4 Pb1 2-)n
;
_journal_coden_Cambridge 440
_journal_volume 44
_journal_year 2020
_journal_page_first 171
_journal_name_full 'New J.Chem. '
loop_
_publ_author_name
"Mi-Hee Jung"
_chemical_name_systematic
;
catena-[4-(ammoniomethyl)pyridin-1-ium bis(\m-bromo)-dibromo-lead]
;
_cell_volume   1308.541
_exptl_crystal_colour 'colorless'
_exptl_crystal_density_diffrn 3.233
_exptl_crystal_description 'needle'
_diffrn_ambient_temperature 293
_diffrn_radiation_probe x-ray
_diffrn_source synchrotron
#These two values have been output from a single CSD field.
_refine_ls_R_factor_gt 0.0938
_refine_ls_wR_factor_gt 0.0938
_symmetry_cell_setting monoclinic
_symmetry_space_group_name_H-M 'P 21/c'
_symmetry_Int_Tables_number 14
loop_
_symmetry_equiv_pos_site_id
_symmetry_equiv_pos_as_xyz
1 x,y,z
2 -x,1/2+y,1/2-z
3 -x,-y,-z
4 x,-1/2-y,-1/2+z
_cell_length_a 12.390(3)
_cell_length_b 13.824(3)
_cell_length_c 7.9270(16)
_cell_angle_alpha 90
_cell_angle_beta 105.47(3)
_cell_angle_gamma 90
_cell_formula_units_Z 4
loop_
_atom_type_symbol
_atom_type_radius_bond
C 0.68
H 0.23
Br 1.21
N 0.68
Pb 1.46
loop_
_atom_site_label
_atom_site_type_symbol
_atom_site_fract_x
_atom_site_fract_y
_atom_site_fract_z
Pb1 Pb 0.26960(2) 0.17135(2) 0.11634(3)
Br1 Br 0.12809(6) 0.15485(6) 0.37434(10)
Br2 Br 0.12125(7) 0.04417(6) -0.13915(10)
Br3 Br 0.38373(6) -0.00091(5) 0.26709(12)
Br4 Br 0.43755(6) 0.29254(6) 0.40934(10)
C1 C 0.9191(6) 0.1955(6) 0.5784(12)
H1 H 0.98486 0.17700 0.65981
C2 C 0.8437(5) 0.1257(5) 0.499(1)
H2 H 0.85875 0.06057 0.52429
C3 C 0.7443(6) 0.1539(6) 0.3800(9)
C4 C 0.7254(6) 0.2538(5) 0.3432(10)
H3 H 0.66010 0.27516 0.26422
C5 C 0.8079(7) 0.3191(5) 0.4292(13)
H4 H 0.79732 0.38498 0.40679
C6 C 0.6543(6) 0.0881(6) 0.2837(11)
H5 H 0.58338 0.11041 0.29946
H6 H 0.64971 0.09181 0.15982
N1 N 0.9006(6) 0.2889(5) 0.5418(10)
H7 H 0.95009 0.33063 0.59266
N2 N 0.6707(6) -0.0144(5) 0.3400(12)
H8 H 0.61405 -0.04976 0.27738
H9 H 0.73468 -0.03605 0.32332
H10 H 0.67312 -0.01878 0.45293
Pb1C Pb 0.26960(2) 0.32865(2) 0.61634(3)
Br1C Br 0.12809(6) 0.34515(6) -0.12566(10)
Br4C Br 0.43755(6) 0.20746(6) -0.09066(10)
#END

data_CSD_CIF_QUJBAB
_audit_creation_date 2020-04-01
_audit_creation_method CSD-ConQuest-V1
_database_code_CSD QUJBAB
_database_code_depnum_ccdc_archive 'CCDC 1994236'
_chemical_formula_sum 'C12 H20 I12 N4 Pb4'
_chemical_formula_moiety
;
(I12 Pb4 4-)n,2n(C6 H10 N2 2+)
;
_journal_coden_Cambridge 4
_journal_volume 142
_journal_year 2020
_journal_page_first 6625
_journal_name_full 'J.Am.Chem.Soc. '
loop_
_publ_author_name
"Xiaotong Li"
"Yihui He"
"M.Kepenekian"
"Peijun Guo"
"Weijun Ke"
"Jacky Even"
"C.Katan"
"C.C.Stoumpos"
"R.D.Schaller"
"M.G.Kanatzidis"
_chemical_name_systematic
;
catena-(bis(4-(ammoniomethyl)pyridinium) decakis(\m-iodo)-tetra-lead(ii))
;
_cell_volume   4248.095
_exptl_crystal_colour 'orange'
_exptl_crystal_density_diffrn 4.021
_exptl_crystal_description 'rectangular plate'
_diffrn_ambient_temperature 298
#These two values have been output from a single CSD field.
_refine_ls_R_factor_gt 0.0393
_refine_ls_wR_factor_gt 0.0393
_symmetry_cell_setting monoclinic
_symmetry_space_group_name_H-M 'I a'
_symmetry_Int_Tables_number 9
loop_
_symmetry_equiv_pos_site_id
_symmetry_equiv_pos_as_xyz
1 x,y,z
2 1/2+x,-y,z
3 1/2+x,1/2+y,1/2+z
4 x,1/2-y,1/2+z
_cell_length_a 25.696(5)
_cell_length_b 10.153(2)
_cell_length_c 16.283(3)
_cell_angle_alpha 90
_cell_angle_beta 90.036
_cell_angle_gamma 90
_cell_formula_units_Z 4
loop_
_atom_type_symbol
_atom_type_radius_bond
C 0.68
H 0.23
I 1.40
N 0.68
Pb 1.46
loop_
_atom_site_label
_atom_site_type_symbol
_atom_site_fract_x
_atom_site_fract_y
_atom_site_fract_z
Pb1 Pb 0.24032(6) 0.95541(15) 0.67726(8)
Pb2 Pb 0.49200(6) 0.95569(14) 0.67769(8)
Pb3 Pb 0.49173(6) 0.54284(14) 0.79808(8)
Pb4 Pb 0.24049(6) 0.54313(16) 0.79856(8)
I1 I 0.36477(11) 0.9423(3) 0.67147(18)
I2 I 0.36456(13) 0.5550(3) 0.80466(19)
I3 I 0.23603(12) 0.8480(3) 0.85836(13)
I4 I 0.49738(13) 0.8430(2) 0.85837(13)
I5 I 0.48544(16) 1.0409(3) 0.48759(17)
I6 I 0.23546(13) 0.6532(3) 0.61544(15)
I7 I 0.49802(14) 0.6589(3) 0.61534(15)
I8 I 0.24744(13) 1.0434(3) 0.48772(16)
I9 I 0.11685(11) 0.9995(5) 0.66169(18)
I10 I 0.61685(11) 0.4998(5) 0.80827(15)
I11 I 0.48072(16) 1.2490(3) 0.7363(3)
I12 I 0.25262(16) 1.2494(3) 0.7366(3)
C1 C 0.3650(5) 0.4966(7) 0.4756(4)
N1 N 0.3668(9) 0.2552(8) 0.5390(7)
C2 C 0.3664(10) 0.2715(8) 0.4580(7)
N2 N 0.3540(7) 0.7314(8) 0.5055(7)
C3 C 0.3654(8) 0.4803(8) 0.5566(4)
C4 C 0.3668(8) 0.3596(9) 0.5883(5)
C5 C 0.3663(8) 0.6327(8) 0.4398(6)
C6 C 0.3649(8) 0.3922(9) 0.4263(5)
H1 H 0.36704 0.16809 0.56193
H2 H 0.36727 0.19616 0.42238
H3 H 0.32796 0.78004 0.48995
H4 H 0.34593 0.69033 0.55063
H5 H 0.38110 0.78098 0.51410
H6 H 0.36479 0.55566 0.59224
H7 H 0.36763 0.34901 0.64135
H8 H 0.40028 0.65011 0.41791
H9 H 0.34093 0.63927 0.39664
H10 H 0.36381 0.40387 0.36779
C7 C 0.6225(8) 0.9845(14) 0.9937(7)
C8 C 0.6182(12) 1.0164(18) 0.9148(7)
N3 N 0.5804(9) 1.2137(15) 0.9510(11)
N4 N 0.6478(12) 0.7658(15) 0.9444(12)
C9 C 0.6460(12) 0.8548(17) 1.0178(10)
C10 C 0.6051(12) 1.0663(19) 1.0512(8)
C11 C 0.5835(10) 1.1803(16) 1.0298(10)
C12 C 0.5972(12) 1.1312(19) 0.8935(9)
H11 H 0.63029 0.95672 0.87326
H12 H 0.63751 0.80884 0.90109
H13 H 0.67947 0.73816 0.93699
H14 H 0.62735 0.69863 0.95240
H15 H 0.62515 0.81489 1.05995
H16 H 0.68063 0.86861 1.03807
H17 H 0.60801 1.04300 1.10820
H18 H 0.57027 1.23855 1.07129
H19 H 0.59425 1.15441 0.83650
H20 H 0.56729 1.28950 0.93710
Pb2A Pb -0.00800(6) 1.04431(14) 0.67769(8)
Pb3* Pb 0.49173(6) 1.54284(14) 0.79808(8)
Pb3C Pb 0.49173(6) 0.95716(14) 0.29808(8)
Pb4* Pb 0.24049(6) 1.54313(16) 0.79856(8)
Pb4A Pb 0.74049(6) 0.45687(16) 0.79856(8)
Pb4C Pb 0.24049(6) 0.95687(16) 0.29856(8)
I5C I 0.48544(16) 0.4591(3) 0.98759(17)
I8C I 0.24744(13) 0.4566(3) 0.98772(16)
I9A I 0.61685(11) 1.0005(5) 0.66169(18)
I10A I 0.11685(11) 0.5002(5) 0.80827(15)
I11* I 0.48072(16) 0.2490(3) 0.7363(3)
I12* I 0.25262(16) 0.2494(3) 0.7366(3)
#END

data_CSD_CIF_QUJCAC
_audit_creation_date 2020-04-01
_audit_creation_method CSD-ConQuest-V1
_database_code_CSD QUJCAC
_database_code_depnum_ccdc_archive 'CCDC 1994241'
_chemical_formula_sum 'C24 H40 I24 N8 Sn8'
_chemical_formula_moiety
;
(I24 Sn8 8-)n,4n(C6 H10 N2 2+)
;
_journal_coden_Cambridge 4
_journal_volume 142
_journal_year 2020
_journal_page_first 6625
_journal_name_full 'J.Am.Chem.Soc. '
loop_
_publ_author_name
"Xiaotong Li"
"Yihui He"
"M.Kepenekian"
"Peijun Guo"
"Weijun Ke"
"Jacky Even"
"C.Katan"
"C.C.Stoumpos"
"R.D.Schaller"
"M.G.Kanatzidis"
_chemical_name_systematic
;
catena-(tetrakis(4-(ammoniomethyl)pyridinium) 
docosakis(\m-iodo)-bis(iodo)-octa-tin)
;
_cell_volume   4140.114
_exptl_crystal_colour 'dark red'
_exptl_crystal_density_diffrn 3.559
_exptl_crystal_description 'rectangular plate'
_diffrn_ambient_temperature 293
#These two values have been output from a single CSD field.
_refine_ls_R_factor_gt 0.0688
_refine_ls_wR_factor_gt 0.0688
_symmetry_cell_setting monoclinic
_symmetry_space_group_name_H-M 'I m'
_symmetry_Int_Tables_number 8
loop_
_symmetry_equiv_pos_site_id
_symmetry_equiv_pos_as_xyz
1 x,y,z
2 x,-y,z
3 1/2+x,1/2+y,1/2+z
4 1/2+x,1/2-y,1/2+z
_cell_length_a 16.2208(12)
_cell_length_b 25.4537(16)
_cell_length_c 10.0307(6)
_cell_angle_alpha 90
_cell_angle_beta 91.466(6)
_cell_angle_gamma 90
_cell_formula_units_Z 2
loop_
_atom_type_symbol
_atom_type_radius_bond
C 0.68
H 0.23
I 1.40
N 0.68
Sn 1.39
loop_
_atom_site_label
_atom_site_type_symbol
_atom_site_fract_x
_atom_site_fract_y
_atom_site_fract_z
Sn1 Sn 0.9503(2) 0.00000 0.0869(4)
Sn2 Sn 0.8309(2) 0.00000 0.6702(5)
Sn3 Sn 1.3347(2) 0.00000 0.0689(4)
Sn4 Sn 1.32764(16) -0.24963(12) 0.0867(3)
Sn5 Sn 0.95424(15) -0.25033(13) 0.1729(3)
I1 I 0.7714(2) 0.00000 -0.0272(4)
I2 I 1.00947(19) 0.00000 0.7828(4)
I3 I 1.2688(2) 0.00000 -0.2271(4)
I4 I 0.8913(4) 0.00000 0.3765(6)
I5 I 1.2709(2) -0.25659(17) -0.2220(5)
I6 I 1.1444(2) 0.00000 0.1415(3)
I7 I 0.8292(2) -0.12584(12) 0.6498(4)
I8 I 1.3846(8) -0.23644(9) 0.3816(5)
I9 I 0.95440(19) -0.12467(13) 0.0988(4)
I10 I 1.32241(19) -0.12473(13) 0.0723(4)
I11 I 1.0100(2) -0.24386(16) 0.4844(5)
I12 I 0.63664(18) 0.00000 0.6083(4)
I13 I 1.12027(15) -0.25839(11) 0.0627(3)
Sn6 Sn 1.4484(2) 0.00000 0.6811(4)
I14 I 1.4654(2) -0.12459(14) 0.6828(4)
I15 I 1.3918(4) 0.00000 0.3731(6)
I16 I 1.5179(2) 0.00000 0.9773(4)
N1 N 1.1779(17) 0.1036(15) 0.385(4)
C1 C 1.235(3) 0.1168(19) 0.476(4)
C2 C 1.111(2) 0.1431(11) 0.773(3)
N2 N 1.1344(19) 0.1034(12) 0.878(2)
C3 C 1.088(3) 0.1040(17) 0.544(4)
C4 C 1.100(2) 0.094(2) 0.416(4)
C5 C 1.215(3) 0.127(2) 0.601(5)
C6 C 1.137(2) 0.1236(18) 0.640(2)
H1 H 1.19178 0.10103 0.30238
H2 H 1.29202 0.11903 0.45151
H3 H 1.13845 0.17581 0.79305
H4 H 1.05255 0.14837 0.77221
H5 H 1.13938 0.11897 0.95538
H6 H 1.09625 0.07949 0.88172
H7 H 1.18105 0.08885 0.85871
H8 H 1.03313 0.09551 0.57283
H9 H 1.05828 0.08180 0.35398
H10 H 1.25685 0.13661 0.66505
C7 C 1.5371(18) -0.1161(14) 0.261(3)
N3 N 1.5897(12) -0.1019(12) 0.358(3)
C8 C 1.6958(12) -0.1447(11) 0.0018(18)
N4 N 1.6452(13) -0.1326(10) -0.1217(16)
C9 C 1.7018(19) -0.1109(13) 0.221(2)
C10 C 1.6703(13) -0.0986(15) 0.338(3)
C11 C 1.5713(17) -0.1306(17) 0.147(4)
C12 C 1.6510(15) -0.1262(16) 0.1220(16)
H11 H 1.47844 -0.11597 0.27174
H12 H 1.74804 -0.12720 -0.00228
H13 H 1.70450 -0.18198 0.00794
H14 H 1.61037 -0.15796 -0.13717
H15 H 1.61847 -0.10337 -0.11042
H16 H 1.67758 -0.12937 -0.18907
H17 H 1.76016 -0.10879 0.20784
H18 H 1.70640 -0.08708 0.40926
H19 H 1.53580 -0.14524 0.07896
H20 H 1.57109 -0.09466 0.43653
Sn4A Sn 1.32764(16) 0.24963(12) 0.0867(3)
Sn5A Sn 0.95424(15) 0.25033(13) 0.1729(3)
I5A I 1.2709(2) 0.25659(17) -0.2220(5)
I7A I 0.8292(2) 0.12584(12) 0.6498(4)
I8A I 1.3846(8) 0.23644(9) 0.3816(5)
I9A I 0.95440(19) 0.12467(13) 0.0988(4)
I10A I 1.32241(19) 0.12473(13) 0.0723(4)
I11A I 1.0100(2) 0.24386(16) 0.4844(5)
I13A I 1.12027(15) 0.25839(11) 0.0627(3)
I14A I 1.4654(2) 0.12459(14) 0.6828(4)
Sn1* Sn 0.9503(2) 0.00000 1.0869(4)
Sn2* Sn 0.8309(2) 0.00000 -0.3298(5)
Sn3* Sn 1.3347(2) 0.00000 1.0689(4)
Sn4B Sn 0.82764(16) 0.25037(12) 0.5867(3)
Sn4C Sn 0.82764(16) -0.25037(12) 0.5867(3)
Sn5B Sn 1.45424(15) 0.24967(13) -0.3271(3)
Sn5B* Sn 1.45424(15) 0.24967(13) 0.6729(3)
Sn5C Sn 1.45424(15) -0.24967(13) -0.3271(3)
Sn5C* Sn 1.45424(15) -0.24967(13) 0.6729(3)
I1* I 0.7714(2) 0.00000 0.9728(4)
I2* I 1.00947(19) 0.00000 -0.2172(4)
I3* I 1.2688(2) 0.00000 0.7729(4)
I5B I 0.7709(2) 0.24341(17) 0.2780(5)
I5C I 0.7709(2) -0.24341(17) 0.2780(5)
I7B I 1.3292(2) 0.37416(12) 0.1498(4)
I7C I 1.3292(2) -0.37416(12) 0.1498(4)
I8B I 0.8846(8) 0.26356(9) -0.1184(5)
I8C I 0.8846(8) -0.26356(9) -0.1184(5)
I11B I 1.5100(2) 0.25614(16) -0.0156(5)
I11C I 1.5100(2) -0.25614(16) -0.0156(5)
I12* I 1.63664(18) 0.00000 0.6083(4)
Sn6* Sn 0.4484(2) 0.00000 0.6811(4)
Sn6** Sn 1.4484(2) 0.00000 -0.3189(4)
I14B I 0.9654(2) 0.37541(14) 0.1828(4)
I14C I 0.9654(2) -0.37541(14) 0.1828(4)
I16* I 1.5179(2) 0.00000 -0.0227(4)
#END
