
#######################################################################
#
#                 Cambridge Crystallographic Data Centre
#                                CCDC
#
#######################################################################
#
# If this CIF has been generated from an entry in the Cambridge
# Structural Database, then it will include bibliographic, chemical,
# crystal, experimental, refinement or atomic coordinate data resulting
# from the CCDC's data processing and validation procedures.
#
#######################################################################

data_CSD_CIF_BOBDOM
_audit_creation_date 2008-07-21
_audit_creation_method CSD-ConQuest-V1
_database_code_CSD BOBDOM
_database_code_depnum_ccdc_archive 'CCDC 657415'
_chemical_formula_sum 'C10 H32 I8 N4 Sn2'
_chemical_formula_moiety
;
(C5 H16 N2 2+)2n,n(I8 Sn2 4-)
;
_journal_coden_Cambridge 1096
_journal_volume 19
_journal_year 2007
_journal_page_first 6312
_journal_name_full 'Chem.Mater. '
loop_
_publ_author_name
"Y.Takahashi"
"R.Obara"
"K.Nakagawa"
"M.Nakano"
"J.Tokita"
"T.Inabe"
_chemical_name_systematic
;
catena-(bis(1,5-pentylenediammonium) (tetrakis(\m~2~-iodo)-tetra-iodo-di-tin))
;
_cell_volume   3159.203
_exptl_crystal_colour 'black'
_exptl_crystal_density_diffrn 3.071
_exptl_crystal_description 'platelet'
_diffrn_ambient_temperature 273.2
#These two values have been output from a single CSD field.
_refine_ls_R_factor_gt 0.062
_refine_ls_wR_factor_gt 0.062
_symmetry_cell_setting monoclinic
_symmetry_space_group_name_H-M 'C 2/c'
_symmetry_Int_Tables_number 15
loop_
_symmetry_equiv_pos_site_id
_symmetry_equiv_pos_as_xyz
1 x,y,z
2 1/2+x,1/2+y,z
3 -x,y,1/2-z
4 1/2-x,1/2+y,1/2-z
5 -x,-y,-z
6 -1/2-x,-1/2-y,-z
7 x,-y,-1/2+z
8 -1/2+x,-1/2-y,-1/2+z
_cell_length_a 12.648(1)
_cell_length_b 12.225(1)
_cell_length_c 20.605(2)
_cell_angle_alpha 90
_cell_angle_beta 97.434(2)
_cell_angle_gamma 90
_cell_formula_units_Z 4
loop_
_atom_type_symbol
_atom_type_radius_bond
C 0.68
I 1.40
N 0.68
Sn 1.46
loop_
_atom_site_label
_atom_site_type_symbol
_atom_site_fract_x
_atom_site_fract_y
_atom_site_fract_z
I1 I 1.00000 0.0802(1) -0.25000
I2 I 0.77193(7) 0.12306(8) -0.09219(5)
I3 I 0.50000 0.0642(1) -0.25000
I4 I 0.72000(7) 0.01476(7) -0.39171(4)
I5 I 0.76721(8) -0.17795(6) -0.21601(5)
Sn1 Sn 0.74876(6) 0.07170(7) -0.24637(4)
N1 N 0.972(1) 0.3128(10) -0.1363(7)
N2 N 0.933(1) 0.1774(10) 0.1385(6)
C1 C 1.051(1) 0.364(1) -0.0844(8)
C2 C 1.130(1) 0.280(1) -0.0497(7)
C3 C 1.079(1) 0.191(1) -0.0131(7)
C4 C 1.021(1) 0.231(1) 0.0432(7)
C5 C 0.9789(10) 0.135(1) 0.0806(7)
I2B I 1.22807(7) 0.12306(8) -0.40781(5)
I3* I 1.50000 0.0642(1) -0.25000
I4B I 1.28000(7) 0.01476(7) -0.10829(4)
I5C I 0.73279(8) 0.32205(6) -0.28399(5)
I5A I 1.26721(8) 0.32205(6) -0.21601(5)
I5B I 1.23279(8) -0.17795(6) -0.28399(5)
Sn1B Sn 1.25124(6) 0.07170(7) -0.25363(4)
Sn1B* Sn 0.25124(6) 0.07170(7) -0.25363(4)
Sn1C Sn 0.75124(6) -0.42830(7) -0.25363(4)
Sn1C* Sn 0.75124(6) 0.57170(7) -0.25363(4)
#END

data_CSD_CIF_DIMMUK
_audit_creation_date 2018-11-26
_audit_creation_method CSD-ConQuest-V1
_database_code_CSD DIMMUK
_database_code_depnum_ccdc_archive 'CCDC 1881322'
_chemical_formula_sum 'C5 H16 Cl6 N2 Sn1'
_chemical_formula_moiety
;
C5 H16 N2 2+,Cl6 Sn1 2-
;
_journal_coden_Cambridge 119
_journal_volume 1177
_journal_year 2018
_journal_page_first 55
_journal_name_full 'J.Mol.Struct. '
loop_
_publ_author_name
"A.Ouasri"
"M.S.D.Elyoubi"
"A.Rhandour"
"I.Georgieva"
"Ts Zahariev"
"N.Trendafilova"
"P.Roussel"
_chemical_name_systematic
;
pentane-1,5-diammonium hexachloro-tin(iv)
;
_cell_volume   2970.683
_exptl_crystal_density_diffrn 1.947
_diffrn_ambient_temperature 293
#These two values have been output from a single CSD field.
_refine_ls_R_factor_gt 0.0206
_refine_ls_wR_factor_gt 0.0206
_symmetry_cell_setting orthorhombic
_symmetry_space_group_name_H-M 'P b c a'
_symmetry_Int_Tables_number 61
loop_
_symmetry_equiv_pos_site_id
_symmetry_equiv_pos_as_xyz
1 x,y,z
2 -x,1/2+y,1/2-z
3 1/2-x,-y,1/2+z
4 1/2+x,1/2-y,-z
5 -x,-y,-z
6 x,-1/2-y,-1/2+z
7 -1/2+x,y,-1/2-z
8 -1/2-x,-1/2+y,z
_cell_length_a 11.747(2)
_cell_length_b 11.949(2)
_cell_length_c 21.164(4)
_cell_angle_alpha 90
_cell_angle_beta 90
_cell_angle_gamma 90
_cell_formula_units_Z 8
loop_
_atom_type_symbol
_atom_type_radius_bond
C 0.68
H 0.23
Cl 0.99
N 0.68
Sn 1.39
loop_
_atom_site_label
_atom_site_type_symbol
_atom_site_fract_x
_atom_site_fract_y
_atom_site_fract_z
Sn1 Sn 0.09337(3) 0.68035(3) 0.864906(14)
Cl1 Cl 0.15916(12) 0.59556(11) 0.96184(6)
Cl2 Cl 0.02548(11) 0.76328(10) 0.76658(5)
Cl3 Cl 0.0339(1) 0.49667(9) 0.82661(6)
Cl4 Cl -0.09482(10) 0.70716(10) 0.90991(5)
Cl5 Cl 0.27808(9) 0.65284(10) 0.81462(6)
Cl6 Cl 0.15652(11) 0.86104(10) 0.89958(6)
N1 N -0.2392(3) -0.0865(3) 0.76797(17)
N2 N 0.0744(3) 0.3025(3) 0.93615(17)
C1 C -0.2323(4) -0.0495(4) 0.8337(2)
C2 C -0.1304(4) 0.0213(3) 0.8481(2)
C3 C -0.1223(4) 0.0479(3) 0.9180(2)
C4 C -0.0195(4) 0.1188(4) 0.9374(2)
C5 C -0.0249(4) 0.2353(4) 0.9126(2)
H1 H -0.30404 -0.14003 0.76313
H2 H -0.25183 -0.02021 0.73995
H3 H -0.16656 -0.12441 0.75585
H4 H 0.06470 0.38256 0.92339
H5 H 0.07825 0.29738 0.98326
H6 H 0.14639 0.27248 0.91749
H7 H -0.23281 -0.11620 0.86226
H8 H -0.30307 -0.00760 0.84509
H9 H -0.13496 0.09257 0.82345
H10 H -0.05991 -0.01864 0.83424
H11 H -0.12259 -0.02331 0.94282
H12 H -0.19384 0.08567 0.93216
H13 H -0.01374 0.12078 0.98454
H14 H 0.05199 0.08209 0.92228
H15 H -0.09751 0.27125 0.92662
H16 H -0.02386 0.23356 0.86533
#END

data_CSD_CIF_DONDUF
_audit_creation_date 2000-11-28
_audit_creation_method CSD-ConQuest-V1
_database_code_CSD DONDUF
_database_code_depnum_ccdc_archive 'CCDC 105852'
_database_code_depnum_ccdc_journal 182/1361
_chemical_formula_sum 'C30 H96 I24 N12 Sn6'
_chemical_formula_moiety
;
(C5 H16 N2 2+)6n,n(I24 Sn6 12-)
;
_journal_coden_Cambridge 182
_journal_year 1999
_journal_page_first 1833
_journal_name_full 'Chem.Commun. '
loop_
_publ_author_name
"Jun Guan"
"Zhongjia Tang"
"A.M.Guloy"
_chemical_name_systematic
;
catena-(hexakis(Pentane-1,5-diammonium) 
tetradecakis(\m~2~-iodo)-decaiodo-hexa-tin(ii))
;
_cell_volume   9593.354
_exptl_crystal_colour 'dark red'
_exptl_crystal_density_diffrn 3.035
_exptl_crystal_description 'prismatic column'
_diffrn_ambient_temperature 223.15
_refine_special_details
;
Carbon atoms C3, C4, C13, C14 and C15 and associated hydrogens exhibited 
conformational disorder.
;
#These two values have been output from a single CSD field.
_refine_ls_R_factor_gt 0.0506
_refine_ls_wR_factor_gt 0.0506
_symmetry_cell_setting orthorhombic
_symmetry_space_group_name_H-M 'P b c n'
_symmetry_Int_Tables_number 60
loop_
_symmetry_equiv_pos_site_id
_symmetry_equiv_pos_as_xyz
1 x,y,z
2 1/2-x,1/2-y,1/2+z
3 1/2+x,1/2-y,-z
4 -x,y,1/2-z
5 -x,-y,-z
6 -1/2+x,-1/2+y,-1/2-z
7 -1/2-x,-1/2+y,z
8 x,-y,-1/2+z
_cell_length_a 30.255(2)
_cell_length_b 12.352(7)
_cell_length_c 25.6706(14)
_cell_angle_alpha 90
_cell_angle_beta 90
_cell_angle_gamma 90
_cell_formula_units_Z 4
loop_
_atom_type_symbol
_atom_type_radius_bond
C 0.68
H 0.23
I 1.45
N 0.68
Sn 1.66
loop_
_atom_site_label
_atom_site_type_symbol
_atom_site_fract_x
_atom_site_fract_y
_atom_site_fract_z
Sn1 Sn 0.4114(1) -0.3183(1) 0.3255(1)
Sn2 Sn 0.2513(1) -0.3045(1) 0.4919(1)
Sn3 Sn 0.4136(1) -0.8156(1) 0.3257(1)
I1 I 0.50000 -0.3198(1) 0.25000
I2 I 0.3282(1) -0.3061(1) 0.3937(1)
I3 I 0.4017(1) -0.5657(1) 0.3047(1)
I4 I 0.3561(1) -0.2556(1) 0.2328(1)
I5 I 0.4714(1) -0.3689(1) 0.4310(1)
I6 I 0.1666(1) -0.3243(1) 0.4015(1)
I7 I 0.2676(1) -0.5530(1) 0.4889(1)
I8 I 0.3242(1) -0.2604(1) 0.5658(1)
I9 I 0.1896(1) -0.3250(1) 0.5809(1)
I10 I 0.00000 -0.3137(1) 0.25000
I11 I 0.4314(1) -0.0649(1) 0.3423(1)
I12 I 0.3507(1) -0.8754(1) 0.2231(1)
I13 I 0.4737(1) -0.7662(1) 0.4152(1)
N1 N 0.1975(4) -0.5563(9) 0.3227(5)
N2 N 0.2384(4) -0.4375(9) 0.1353(5)
C1 C 0.2472(5) -0.5708(15) 0.3264(9)
C2 C 0.2647(6) -0.6351(17) 0.2789(6)
C3 C 0.2577(6) -0.6027(15) 0.2228(6)
C4 C 0.2813(7) -0.4985(15) 0.2112(6)
C5 C 0.2833(4) -0.4706(14) 0.1538(5)
H1 H 0.18800 -0.51800 0.34990
H2 H 0.18450 -0.62090 0.32270
H3 H 0.19090 -0.52140 0.29340
H4 H 0.22850 -0.38290 0.15460
H5 H 0.21990 -0.49340 0.13800
H6 H 0.24000 -0.41670 0.10210
H7 H 0.25440 -0.60930 0.35820
H8 H 0.26140 -0.50050 0.32770
N3 N 0.3894(4) -0.5707(9) 0.4574(4)
N4 N 0.4773(4) -0.4421(9) 0.6622(5)
C6 C 0.3986(5) -0.6125(11) 0.5102(5)
C7 C 0.3978(5) -0.5241(11) 0.5502(5)
C8 C 0.4020(5) -0.5705(11) 0.6055(5)
C9 C 0.3969(5) -0.4825(12) 0.6480(5)
C10 C 0.4320(4) -0.3972(12) 0.6488(6)
H9 H 0.40960 -0.52150 0.44890
H10 H 0.36270 -0.54030 0.45690
H11 H 0.39020 -0.62500 0.43470
H12 H 0.48480 -0.49260 0.63910
H13 H 0.47660 -0.47110 0.69400
H14 H 0.49710 -0.38880 0.66150
H15 H 0.42740 -0.64700 0.51050
H16 H 0.37670 -0.66680 0.51920
H17 H 0.37030 -0.48400 0.54730
H18 H 0.42200 -0.47430 0.54380
H19 H 0.43060 -0.60500 0.60910
H20 H 0.37950 -0.62550 0.61050
H21 H 0.36850 -0.44740 0.64340
H22 H 0.39650 -0.51790 0.68180
H23 H 0.42410 -0.34220 0.67410
H24 H 0.43340 -0.36290 0.61480
N5 N 0.0582(4) -0.5663(9) 0.1971(4)
C11 C 0.0595(5) -0.6116(16) 0.1408(7)
C12 C 0.0642(7) -0.5260(15) 0.1031(7)
C13 C 0.0654(11) -0.583(2) 0.0465(14)
C14 C 0.0958(8) -0.5079(19) 0.0192(11)
C15 C 0.0700(7) -0.409(2) 0.0006(11)
N6 N 0.0984(8) -0.3422(17) -0.0337(9)
H25 H 0.08320 -0.53090 0.20370
H26 H 0.05530 -0.62070 0.21950
H27 H 0.03540 -0.52130 0.20040
H28 H 0.08410 -0.66140 0.13740
H29 H 0.03250 -0.65140 0.13390
H30 H 0.03780 -0.58800 0.02870
H31 H 0.07800 -0.65410 0.04860
H32 H 0.11860 -0.48570 0.04250
H33 H 0.10860 -0.54360 -0.01010
H34 H 0.04440 -0.43160 -0.01820
H35 H 0.06110 -0.36680 0.03010
H36 H 0.08330 -0.28420 -0.04460
H37 H 0.12230 -0.32070 -0.01610
H38 H 0.10670 -0.38150 -0.06130
C16? C 0.2674(17) 0.465(2) 0.2458(12)
C17? C 0.2815(14) 0.436(2) 0.1914(11)
C18? C 0.0604(10) 0.439(3) 0.0496(14)
C19? C 0.0538(6) 0.518(2) 0.0043(10)
C20? C 0.0902(8) 0.6036(15) 0.0055(12)
N7? N 0.1317(7) 0.557(2) -0.0154(11)
H39? H 0.03830 0.38370 0.04830
H40? H 0.08860 0.40490 0.04670
H41? H 0.02560 0.55150 0.00710
H42? H 0.05480 0.47930 -0.02790
H43? H 0.09480 0.62750 0.04040
H44? H 0.08150 0.66440 -0.01500
H45? H 0.15290 0.60740 -0.01470
H46? H 0.13980 0.50060 0.00410
H47? H 0.12730 0.53540 -0.04830
I7F I 0.2324(1) -0.0530(1) 0.4889(1)
I6F I 0.3334(1) -0.8243(1) 0.4015(1)
I11* I 0.4314(1) -1.0649(1) 0.3423(1)
Sn1C Sn 0.5886(1) -0.3183(1) 0.1745(1)
Sn3F Sn 0.0864(1) -0.3156(1) 0.3257(1)
Sn2F Sn 0.2487(1) -0.8045(1) 0.4919(1)
Sn3C Sn 0.5864(1) -0.8156(1) 0.1743(1)
Sn3* Sn 0.4136(1) 0.1844(1) 0.3257(1)
Sn2F* Sn 0.2487(1) 0.1955(1) 0.4919(1)
I2C I 0.6718(1) -0.3061(1) 0.1063(1)
I3C I 0.5983(1) -0.5657(1) 0.1953(1)
I4C I 0.6439(1) -0.2556(1) 0.2672(1)
I5C I 0.5286(1) -0.3689(1) 0.0690(1)
I11C I 0.5686(1) -0.0649(1) 0.1577(1)
I3F I 0.0983(1) -0.0657(1) 0.3047(1)
I10E I 0.50000 -0.8137(1) 0.25000
I11F I 0.0686(1) -0.5649(1) 0.3423(1)
I12F I 0.1493(1) -0.3754(1) 0.2231(1)
I13F I 0.0263(1) -0.2662(1) 0.4152(1)
I2F I 0.1718(1) -0.8061(1) 0.3937(1)
I7F* I 0.2324(1) -1.0530(1) 0.4889(1)
I8F I 0.1758(1) -0.7604(1) 0.5658(1)
I9F I 0.3104(1) -0.8250(1) 0.5809(1)
Sn2C Sn 0.7487(1) -0.3045(1) 0.0081(1)
Sn3C* Sn 0.5864(1) 0.1844(1) 0.1743(1)
Sn1F Sn 0.0886(1) 0.1817(1) 0.3255(1)
Sn3E Sn -0.0864(1) -0.3156(1) 0.1743(1)
Sn1F* Sn 0.0886(1) -0.8183(1) 0.3255(1)
#END

data_CSD_CIF_ETOGAV
_audit_creation_date 2004-06-30
_audit_creation_method CSD-ConQuest-V1
_database_code_CSD ETOGAV
_database_code_depnum_ccdc_archive 'CCDC 241218'
_chemical_formula_sum 'C10 H32 I10 N4 Pb3'
_chemical_formula_moiety
;
(C5 H16 N2 2+)2n,n(I10 Pb3 4-)
;
_journal_coeditor_code "IUCr FG1746"
_journal_coden_Cambridge 591
_journal_volume 60
_journal_year 2004
_journal_page_first m224
_journal_name_full 'Acta Crystallogr.,Sect.C:Cryst.Struct.Commun. '
loop_
_publ_author_name
"D.G.Billing"
"A.Lemmerer"
_chemical_name_systematic
;
catena-[bis(Pentane-1,5-diammonium) octakis(\m~2~-iodo)-diiodo-tri-lead(ii)]
;
_cell_volume    931.354
_exptl_crystal_colour 'yellow'
_exptl_crystal_density_diffrn 3.742
_exptl_crystal_description 'plate'
_diffrn_ambient_temperature 293
#These two values have been output from a single CSD field.
_refine_ls_R_factor_gt 0.036
_refine_ls_wR_factor_gt 0.036
_symmetry_cell_setting triclinic
_symmetry_space_group_name_H-M 'P -1'
_symmetry_Int_Tables_number 2
loop_
_symmetry_equiv_pos_site_id
_symmetry_equiv_pos_as_xyz
1 x,y,z
2 -x,-y,-z
_cell_length_a 8.8543(15)
_cell_length_b 11.1457(19)
_cell_length_c 11.5725(19)
_cell_angle_alpha 109.624(3)
_cell_angle_beta 106.173(3)
_cell_angle_gamma 107.339(3)
_cell_formula_units_Z 1
loop_
_atom_type_symbol
_atom_type_radius_bond
C 0.68
H 0.23
I 1.40
N 0.68
Pb 1.54
loop_
_atom_site_label
_atom_site_type_symbol
_atom_site_fract_x
_atom_site_fract_y
_atom_site_fract_z
Pb1 Pb 0.50000 0.50000 0.50000
Pb2 Pb 0.17920(6) 0.10698(5) 0.21099(5)
I1 I 0.14443(11) 0.29176(9) 0.48552(10)
I2 I 0.27005(11) 0.40849(10) 0.19085(10)
I3 I 0.60509(11) 0.24323(10) 0.39754(11)
I4 I -0.21829(10) 0.03520(9) 0.06001(9)
I5 I 0.08075(13) -0.14724(10) 0.27750(11)
N1 N -0.7421(18) 0.0562(15) -0.3538(16)
H1 H -0.74470 -0.02370 -0.35220
H2 H -0.80990 0.03720 -0.43660
H3 H -0.78070 0.09670 -0.29540
N2 N -0.0792(18) 0.4487(18) 0.2629(14)
H4 H -0.11130 0.50380 0.31670
H5 H 0.03520 0.49220 0.28870
H6 H -0.10520 0.36770 0.26810
C1 C -0.563(2) 0.152(2) -0.316(2)
H7 H -0.56400 0.23120 -0.33330
H8 H -0.51660 0.10280 -0.37240
C2 C -0.443(2) 0.2082(19) -0.1659(16)
H9 H -0.32290 0.25310 -0.15150
H10 H -0.45680 0.12900 -0.14550
C3 C -0.482(2) 0.3170(18) -0.0656(18)
H11 H -0.45590 0.40180 -0.07750
H12 H -0.60510 0.27640 -0.08440
C4 C -0.370(2) 0.354(2) 0.0812(18)
H13 H -0.39590 0.42050 0.14250
H14 H -0.40140 0.26940 0.09260
C5 C -0.174(2) 0.419(2) 0.120(2)
H15 H -0.14560 0.35420 0.05950
H16 H -0.13950 0.50610 0.11170
I1A I 0.85557(11) 0.70824(9) 0.51448(10)
I2A I 0.72995(11) 0.59151(10) 0.80915(10)
I3A I 0.39491(11) 0.75677(10) 0.60246(11)
Pb2A Pb 0.82080(6) 0.89302(5) 0.78901(5)
I4A I 0.21829(10) -0.03520(9) -0.06001(9)
I5A I 0.91925(13) 1.14724(10) 0.72250(11)
Pb2A* Pb -0.17920(6) -0.10698(5) -0.21099(5)
I4* I 0.78171(10) 1.03520(9) 1.06001(9)
I4A* I 1.21829(10) 0.96480(9) 0.93999(9)
#END
